
1.0
     11.72462000      0.00000000      0.00000000
      0.00000000     10.15381800      0.00000000
      0.00000000      0.00000000     40.00000000
    N     O     Au
     1     3    96
Direct
      0.47420859      0.41994110      0.62414306
      0.57242599      0.41994708      0.60987199
      0.37961828      0.41989763      0.60684476
      0.46685084      0.42003694      0.65487234
      0.12432232      0.08411693      0.42936120
     -0.00104417      0.00112987      0.48929067
     -0.00181931      0.16827805      0.55085811
      0.12500000      0.08333300      0.25000000
      0.00000000      0.00000000      0.30983200
     -0.00034235      0.16695705      0.36968408
     -0.00064254      0.33408830      0.42948882
      0.12382141      0.25109696      0.48926993
      0.12107230      0.41804545      0.55043703
      0.25000000      0.33333333      0.25000000
      0.12500000      0.25000000      0.30983200
      0.12461668      0.41682492      0.36973794
      0.12510881      0.58339720      0.42966463
     -0.00149492      0.50118162      0.48926010
     -0.00165081      0.66788148      0.55087382
      0.12500000      0.58333300      0.25000000
     -0.00000000      0.50000000      0.30983200
     -0.00040154      0.66631349      0.36998578
     -0.00070955      0.83382808      0.42935125
      0.12345612      0.75085818      0.48918935
      0.12265427      0.91814460      0.55059618
      0.25000000      0.83333333      0.25000000
      0.12500000      0.75000000      0.30983200
      0.12462549      0.91668442      0.36969811
      0.37436075      0.08479345      0.42947989
      0.24903513      0.00073078      0.48909885
      0.24673400      0.16654912      0.55018096
      0.37500000      0.08333300      0.25000000
      0.25000000      0.00000000      0.30983200
      0.24970474      0.16663590      0.36961165
      0.24954397      0.33388304      0.42936807
      0.37404752      0.25157465      0.48965842
      0.37251144      0.41845943      0.54965242
      0.50000000      0.33333333      0.25000000
      0.37500000      0.25000000      0.30983200
      0.37473480      0.41669048      0.36968102
      0.37470038      0.58366276      0.42937973
      0.24933211      0.50040675      0.48978833
      0.24749314      0.67052803      0.55021847
      0.37500000      0.58333300      0.25000000
      0.25000000      0.50000000      0.30983200
      0.24952501      0.66659021      0.36965133
      0.24943528      0.83382182      0.42927221
      0.37353505      0.75111531      0.48903494
      0.37258110      0.91892089      0.55077257
      0.50000000      0.83333333      0.25000000
      0.37500000      0.75000000      0.30983200
      0.37467137      0.91675846      0.36972803
      0.62454315      0.08496831      0.42954615
      0.49908063      0.00027306      0.48900862
      0.49882163      0.16384783      0.54978119
      0.62500000      0.08333300      0.25000000
      0.50000000      0.00000000      0.30983200
      0.49980939      0.16646519      0.36964517
      0.49952207      0.33394408      0.42936313
      0.62377371      0.25182518      0.48987135
      0.62381353      0.41876037      0.55087309
      0.75000000      0.33333333      0.25000000
      0.62500000      0.25000000      0.30983200
      0.62489110      0.41686737      0.36971945
      0.62404394      0.58356264      0.42964400
      0.49874326      0.50106935      0.48979712
      0.49869687      0.67392804      0.54965982
      0.62500000      0.58333300      0.25000000
      0.50000000      0.50000000      0.30983200
      0.49992076      0.66668396      0.36963750
      0.49941678      0.83399452      0.42924730
      0.62456418      0.75125659      0.48914308
      0.62497492      0.91887153      0.55083992
      0.75000000      0.83333333      0.25000000
      0.62500000      0.75000000      0.30983200
      0.62486756      0.91691157      0.36977701
      0.87438446      0.08419228      0.42941595
      0.74905360      0.00120965      0.48925300
      0.74976855      0.16763882      0.55058584
      0.87500000      0.08333300      0.25000000
      0.75000000     -0.00000000      0.30983200
      0.74977355      0.16695049      0.36967450
      0.74910715      0.33413356      0.42962614
      0.87404247      0.25127185      0.48939133
      0.87387192      0.41817347      0.55103132
      0.00000000      0.33333333      0.25000000
      0.87500000      0.25000000      0.30983200
      0.87467758      0.41684669      0.36981991
      0.87335859      0.58342159      0.42980916
      0.74780301      0.50029061      0.49027527
      0.74918263      0.66966728      0.55073114
      0.87500000      0.58333300      0.25000000
      0.75000000      0.50000000      0.30983200
      0.74983884      0.66662314      0.36976487
      0.74935060      0.83401945      0.42935394
      0.87403340      0.75092981      0.48932739
      0.87419964      0.91816861      0.55062288
     -0.00000000      0.83333333      0.25000000
      0.87500000      0.75000000      0.30983200
      0.87479370      0.91677406      0.36969149
