1.0
     11.72462000      0.00000000      0.00000000
      0.00000000     10.15381800      0.00000000
      0.00000000      0.00000000     40.00000000
    N     O     Au
     1     2    96
Direct
      0.50000000      0.42047342      0.62360381
      0.59384868      0.41997350      0.60881378
      0.40615132      0.41997350      0.60881378
      0.12496747      0.08372215      0.42940507
      0.00000000      0.00039634      0.48933013
      0.00000000      0.16735898      0.55091504
      0.12500000      0.08333300      0.25000000
      0.00000000     -0.00000000      0.30983200
      0.00000000      0.16669367      0.36968262
      0.00000000      0.33355446      0.42945459
      0.12493394      0.25041765      0.48928612
      0.12399347      0.41711635      0.55058956
      0.25000000      0.33333333      0.25000000
      0.12500000      0.25000000      0.30983200
      0.12492037      0.41667893      0.36972940
      0.12586170      0.58298791      0.42971711
      0.00000000      0.50049284      0.48919416
      0.00000000      0.66680479      0.55097333
      0.12500000      0.58333300      0.25000000
     -0.00000000      0.50000000      0.30983200
      0.00000000      0.66615305      0.37001080
      0.00000000      0.83345001      0.42933125
      0.12460603      0.75021131      0.48926284
      0.12424907      0.91719839      0.55070923
      0.25000000      0.83333333      0.25000000
      0.12500000      0.75000000      0.30983200
      0.12492429      0.91662114      0.36968922
      0.37489226      0.08415509      0.42944496
      0.24993763      0.00007890      0.48915925
      0.24866459      0.16615513      0.55025668
      0.37500000      0.08333300      0.25000000
      0.25000000     -0.00000000      0.30983200
      0.24993370      0.16654788      0.36960010
      0.25013414      0.33354200      0.42935894
      0.37520775      0.25071497      0.48944345
      0.37523527      0.41723112      0.54995769
      0.50000000      0.33333333      0.25000000
      0.37500000      0.25000000      0.30983200
      0.37483471      0.41663171      0.36960688
      0.37496130      0.58350248      0.42922478
      0.25092247      0.49955352      0.48990042
      0.24914195      0.66892414      0.55039065
      0.37500000      0.58333300      0.25000000
      0.25000000      0.50000000      0.30983200
      0.24967123      0.66652711      0.36958455
      0.24994785      0.83336045      0.42929187
      0.37449186      0.75035146      0.48902335
      0.37400187      0.91772206      0.55079935
      0.50000000      0.83333333      0.25000000
      0.37500000      0.75000000      0.30983200
      0.37493116      0.91666388      0.36971328
      0.62510774      0.08415509      0.42944496
      0.50000000     -0.00032181      0.48908046
      0.50000000      0.16319497      0.54989478
      0.62500000      0.08333300      0.25000000
      0.50000000      0.00000000      0.30983200
      0.50000000      0.16620325      0.36960969
      0.50000000      0.33352424      0.42911053
      0.62479225      0.25071497      0.48944345
      0.62476473      0.41723112      0.54995769
      0.75000000      0.33333333      0.25000000
      0.62500000      0.25000000      0.30983200
      0.62516529      0.41663171      0.36960688
      0.62503870      0.58350248      0.42922478
      0.50000000      0.50069598      0.48907754
      0.50000000      0.67205129      0.54955343
      0.62500000      0.58333300      0.25000000
      0.50000000      0.50000000      0.30983200
      0.50000000      0.66672507      0.36957213
      0.50000000      0.83369481      0.42925514
      0.62550814      0.75035146      0.48902335
      0.62599813      0.91772206      0.55079935
      0.75000000      0.83333333      0.25000000
      0.62500000      0.75000000      0.30983200
      0.62506884      0.91666388      0.36971328
      0.87503253      0.08372215      0.42940507
      0.75006237      0.00007890      0.48915925
      0.75133541      0.16615513      0.55025668
      0.87500000      0.08333300      0.25000000
      0.75000000     -0.00000000      0.30983200
      0.75006630      0.16654788      0.36960010
      0.74986586      0.33354200      0.42935894
      0.87506607      0.25041765      0.48928612
      0.87600653      0.41711635      0.55058956
      0.00000000      0.33333333      0.25000000
      0.87500000      0.25000000      0.30983200
      0.87507963      0.41667893      0.36972940
      0.87413830      0.58298791      0.42971711
      0.74907753      0.49955352      0.48990042
      0.75085805      0.66892414      0.55039065
      0.87500000      0.58333300      0.25000000
      0.75000000      0.50000000      0.30983200
      0.75032877      0.66652711      0.36958455
      0.75005215      0.83336045      0.42929187
      0.87539397      0.75021131      0.48926284
      0.87575093      0.91719839      0.55070923
      0.00000000      0.83333333      0.25000000
      0.87500000      0.75000000      0.30983200
      0.87507571      0.91662114      0.36968922
