
1.0
     11.72462000      0.00000000      0.00000000
      0.00000000     11.72462000      0.00000000
      0.00000000      0.00000000     40.00000000
    H     N     O     Cu    Au
     1     1     1    32    64
Direct
      0.75138803      0.48323157      0.52870956
      0.75290183      0.45094261      0.50488588
      0.76132654      0.32664782      0.51009072
      0.63188757      0.74467252      0.39494183
      0.51606354      0.35518790      0.44088892
      0.50190829      0.64459733      0.44024931
      0.76089936      0.12697923      0.44087344
      0.64805102      0.98998972      0.48064397
      0.75228874      0.38223706      0.34924162
      0.76722812      0.35717536      0.43709869
      0.64954847      0.25078335      0.48110411
      0.74924662      0.62307394      0.35039695
      0.75690865      0.64353836      0.43876714
      0.63310928      0.50502404      0.47371297
      0.76097506      0.12688174      0.34745368
      0.99518044      0.12219354      0.34734222
      0.88289394      0.00580347      0.39002177
      0.87336518      0.23605427      0.39201041
      0.98985631      0.35976223      0.43608345
      0.88305379      0.25546937      0.48208746
      0.99589316      0.63869432      0.43996708
      0.87086635      0.50773600      0.47407469
      0.99859573      0.87297960      0.34816180
      0.87857631      0.74398738      0.39373664
      0.87485514      0.74957645      0.48127580
      0.24986253      0.87227411      0.34651387
      0.25325554      0.12215098      0.34751571
      0.23514234      0.11125580      0.43807112
      0.23390575      0.37703381      0.44028148
      0.11707995      0.24924334      0.47807411
      0.24722047      0.62735742      0.34863558
      0.12690725      0.75479628      0.39148806
      0.23820541      0.87771253      0.43966363
      0.36084066      0.00066585      0.39591155
      0.35715008      0.00075272      0.47735633
      0.75000000      0.37500000      0.25000000
      0.62500000      0.25000000      0.30181575
      0.00000000      0.12500000      0.25000000
      0.50000000      0.37500000      0.25000000
      0.75000000      0.87500000      0.25000000
      0.87500000      0.50000000      0.30181575
      0.75000000      0.62500000      0.25000000
      0.12500000     -0.00000000      0.30181575
      0.00000000      0.37500000      0.25000000
      0.62500000      0.00000000      0.30181575
      0.62500000      0.50000000      0.30181575
      0.50000000      0.12500000      0.25000000
      0.12500000      0.25000000      0.30181575
     -0.00000000      0.62500000      0.25000000
      0.12500000      0.50000000      0.30181575
      0.87500000      0.25000000      0.30181575
      0.87500000      0.75000000      0.30181575
     -0.00000000      0.87500000      0.25000000
      0.12500000      0.75000000      0.30181575
      0.87500000     -0.00000000      0.30181575
      0.25000000      0.12500000      0.25000000
      0.50000000      0.62500000      0.25000000
      0.37500000      0.75000000      0.30181575
      0.37500000      0.00000000      0.30181575
      0.25000000      0.87500000      0.25000000
      0.75000000      0.12500000      0.25000000
      0.62500000      0.75000000      0.30181575
      0.25000000      0.37500000      0.25000000
      0.37500000      0.50000000      0.30181575
      0.50000000      0.87500000      0.25000000
      0.25000000      0.62500000      0.25000000
      0.37500000      0.25000000      0.30181575
      0.39750136      0.49117841      0.47871735
      0.12955485      0.99413789      0.38830163
      0.12984956      0.00676861      0.48742965
      0.25214118      0.37837494      0.35097344
      0.12342021      0.23972912      0.39366046
      0.12258558      0.50727653      0.39725275
      0.23468100      0.63572078      0.44538935
      0.09361479      0.48184059      0.48224922
      0.10346073      0.75821262      0.49091693
      0.49295169      0.12373480      0.35153764
      0.51549951      0.12498468      0.44658570
      0.50406561      0.37719594      0.35226742
      0.36743937      0.24111461      0.40020046
      0.34583227      0.24557916      0.48110113
      0.50338876      0.62772366      0.35240795
      0.37583406      0.50058403      0.40179440
      0.00322920      0.87055355      0.43542592
      0.49777583      0.87673153      0.35317431
      0.35413071      0.75390590      0.39516262
      0.50051691      0.88246715      0.43755859
      0.37558636      0.76650378      0.48683655
      0.64334815      0.01233502      0.39420726
      0.64560500      0.25155511      0.39410163
      0.62962708      0.50594474      0.40233303
      0.75906377      0.86629450      0.35181578
      0.76208069      0.87075387      0.43624131
      0.63336172      0.74555281      0.48564905
      0.98717534      0.12351988      0.43925963
      0.87169832      0.99793315      0.48913435
      0.98888263      0.37121206      0.35155960
     -0.00050797      0.63375221      0.35071286
      0.87077680      0.50639773      0.39881062
