
1.0
     11.72462000      0.00000000      0.00000000
      0.00000000     11.72462000      0.00000000
      0.00000000      0.00000000     40.00000000
    N     O     Cu    Au
     1     2    32    64
Direct
      0.24803735      0.75270125      0.56017284
      0.15124610      0.74973124      0.54677182
      0.33858083      0.76070639      0.54357941
      0.63318961      0.74348933      0.39445134
      0.51631999      0.35723624      0.43972512
      0.49948461      0.64540974      0.43916544
      0.75772617      0.13194605      0.44384403
      0.64591464      0.97736761      0.48105530
      0.75333428      0.37868168      0.34854732
      0.76482748      0.36883199      0.43732652
      0.65692244      0.27826040      0.48076940
      0.74908643      0.62503494      0.34928626
      0.76034114      0.63691847      0.43818107
      0.63645815      0.50175575      0.47128026
      0.76112717      0.12724127      0.34751481
      0.99450015      0.12256786      0.34739367
      0.88268943      0.00535724      0.39031834
      0.87299194      0.23787230      0.39237456
      0.98960065      0.36152846      0.43504055
      0.87855270      0.26753785      0.47979498
      0.99547958      0.63752622      0.43966544
      0.86595806      0.50031469      0.47398571
      0.99685824      0.87273537      0.34827444
      0.87835611      0.74365544      0.39300603
      0.87233347      0.74314326      0.48115954
      0.25015854      0.87181844      0.34671955
      0.25367706      0.12273123      0.34793445
      0.23345654      0.11104252      0.43755951
      0.23384670      0.37914076      0.44045783
      0.11622427      0.24972647      0.47741245
      0.24773339      0.62714002      0.34875652
      0.12644240      0.75416572      0.39187291
      0.23762441      0.87839088      0.43937270
      0.35867699      0.00016512      0.39545013
      0.35889073      0.00546029      0.47624083
      0.75000000      0.37500000      0.25000000
      0.62500000      0.25000000      0.30181563
     -0.00000000      0.12500000      0.25000000
      0.50000000      0.37500000      0.25000000
      0.75000000      0.87500000      0.25000000
      0.87500000      0.50000000      0.30181563
      0.75000000      0.62500000      0.25000000
      0.12500000     -0.00000000      0.30181563
      0.00000000      0.37500000      0.25000000
      0.62500000      0.00000000      0.30181563
      0.62500000      0.50000000      0.30181563
      0.50000000      0.12500000      0.25000000
      0.12500000      0.25000000      0.30181563
     -0.00000000      0.62500000      0.25000000
      0.12500000      0.50000000      0.30181563
      0.87500000      0.25000000      0.30181563
      0.87500000      0.75000000      0.30181563
     -0.00000000      0.87500000      0.25000000
      0.12500000      0.75000000      0.30181563
      0.87500000     -0.00000000      0.30181563
      0.25000000      0.12500000      0.25000000
      0.50000000      0.62500000      0.25000000
      0.37500000      0.75000000      0.30181563
      0.37500000     -0.00000000      0.30181563
      0.25000000      0.87500000      0.25000000
      0.75000000      0.12500000      0.25000000
      0.62500000      0.75000000      0.30181563
      0.25000000      0.37500000      0.25000000
      0.37500000      0.50000000      0.30181563
      0.50000000      0.87500000      0.25000000
      0.25000000      0.62500000      0.25000000
      0.37500000      0.25000000      0.30181563
      0.40238952      0.48985819      0.47869311
      0.12736632      0.99353638      0.38785142
      0.13037981      0.00925147      0.48689341
      0.25252744      0.37701111      0.35113534
      0.12363901      0.23976933      0.39418987
      0.12241451      0.50771711      0.39712031
      0.23541171      0.63238690      0.44628445
      0.08763257      0.47958004      0.48247113
      0.10074717      0.75874399      0.49074228
      0.49395175      0.12336948      0.35176796
      0.52457738      0.12870717      0.44924635
      0.50353618      0.37543883      0.35208892
      0.36981155      0.23924060      0.40106115
      0.34511217      0.24501961      0.48053410
      0.50042641      0.62911069      0.35201604
      0.37571990      0.49996289      0.40150478
      0.00346912      0.86848012      0.43595360
      0.49848134      0.87798541      0.35400029
      0.35237139      0.75357635      0.39549831
      0.50028154      0.88236439      0.43712813
      0.37617552      0.77264426      0.48637891
      0.64504010      0.01524717      0.39551910
      0.64787788      0.25291365      0.39439100
      0.62987882      0.50813898      0.39959341
      0.75755773      0.86878169      0.35183404
      0.76200645      0.86639683      0.43585106
      0.63554053      0.73431964      0.48486179
      0.98447783      0.12295476      0.43920797
      0.86984653      0.99477310      0.48845158
      0.99114629      0.36913638      0.35110320
      0.00138803      0.63452313      0.35038963
      0.87111677      0.50622676      0.39626742
