
1.0
     11.72462000      0.00000000      0.00000000
      0.00000000     11.72462000      0.00000000
      0.00000000      0.00000000     40.00000000
    N     O     Cu    Au
     1     3    32    64
Direct
      0.24471797      0.75356418      0.56079293
      0.14493622      0.74984300      0.54669704
      0.33777147      0.76089596      0.54348665
      0.25029091      0.74999813      0.59153383
      0.63317143      0.74380737      0.39449097
      0.51594827      0.35753264      0.43968442
      0.49910531      0.64580840      0.43912788
      0.75782641      0.13201871      0.44372416
      0.64564129      0.97740618      0.48093440
      0.75345427      0.37891213      0.34860390
      0.76480684      0.36888693      0.43732876
      0.65658463      0.27812286      0.48065114
      0.74926861      0.62543614      0.34937242
      0.76015021      0.63675683      0.43805983
      0.63589117      0.50188331      0.47119338
      0.76123489      0.12693933      0.34758097
      0.99458786      0.12240865      0.34747079
      0.88307067      0.00490185      0.39052683
      0.87321808      0.23776455      0.39241400
      0.98991220      0.36178186      0.43521859
      0.87836391      0.26717388      0.47974651
      0.99596836      0.63733543      0.43968417
      0.86630358      0.50034406      0.47395802
      0.99706379      0.87292585      0.34821260
      0.87923165      0.74401924      0.39312914
      0.87167066      0.74065999      0.48128529
      0.24995219      0.87228854      0.34664802
      0.25332283      0.12268663      0.34793514
      0.23370312      0.11078985      0.43770438
      0.23387892      0.37922167      0.44048310
      0.11638657      0.24980698      0.47744586
      0.24763490      0.62694688      0.34873544
      0.12601311      0.75463281      0.39163660
      0.23829554      0.87766393      0.43961247
      0.35860283      0.00018388      0.39541627
      0.35922805      0.00505536      0.47644546
      0.75000000      0.37500000      0.25000000
      0.62500000      0.25000000      0.30181563
     -0.00000000      0.12500000      0.25000000
      0.50000000      0.37500000      0.25000000
      0.75000000      0.87500000      0.25000000
      0.87500000      0.50000000      0.30181563
      0.75000000      0.62500000      0.25000000
      0.12500000     -0.00000000      0.30181563
     -0.00000000      0.37500000      0.25000000
      0.62500000     -0.00000000      0.30181563
      0.62500000      0.50000000      0.30181563
      0.50000000      0.12500000      0.25000000
      0.12500000      0.25000000      0.30181563
     -0.00000000      0.62500000      0.25000000
      0.12500000      0.50000000      0.30181563
      0.87500000      0.25000000      0.30181563
      0.87500000      0.75000000      0.30181563
      0.00000000      0.87500000      0.25000000
      0.12500000      0.75000000      0.30181563
      0.87500000      0.00000000      0.30181563
      0.25000000      0.12500000      0.25000000
      0.50000000      0.62500000      0.25000000
      0.37500000      0.75000000      0.30181563
      0.37500000      0.00000000      0.30181563
      0.25000000      0.87500000      0.25000000
      0.75000000      0.12500000      0.25000000
      0.62500000      0.75000000      0.30181563
      0.25000000      0.37500000      0.25000000
      0.37500000      0.50000000      0.30181563
      0.50000000      0.87500000      0.25000000
      0.25000000      0.62500000      0.25000000
      0.37500000      0.25000000      0.30181563
      0.40124228      0.49052053      0.47855382
      0.12737746      0.99329075      0.38804876
      0.13081264      0.00806441      0.48690352
      0.25242447      0.37682929      0.35111056
      0.12372283      0.23971467      0.39428379
      0.12265150      0.50782075      0.39713093
      0.23517849      0.63451546      0.44603834
      0.08865771      0.48028247      0.48253122
      0.09840962      0.75578058      0.49137379
      0.49404349      0.12341432      0.35180661
      0.52418097      0.12864194      0.44911630
      0.50345170      0.37546795      0.35212746
      0.36954505      0.23922268      0.40105378
      0.34523221      0.24516002      0.48055671
      0.50061612      0.62914080      0.35198322
      0.37537512      0.50039034      0.40145955
      0.00431828      0.86783098      0.43646354
      0.49885354      0.87820549      0.35391313
      0.35246052      0.75414708      0.39517663
      0.49976254      0.88224005      0.43721267
      0.37825639      0.77096143      0.48675104
      0.64508983      0.01480594      0.39564022
      0.64791592      0.25281280      0.39435446
      0.62972573      0.50824869      0.39960049
      0.75788880      0.86865502      0.35189925
      0.76266833      0.86610446      0.43600032
      0.63571068      0.73416991      0.48486503
      0.98495767      0.12277286      0.43927844
      0.86945303      0.99561629      0.48841721
      0.99123403      0.36905330      0.35113888
      0.00125356      0.63431483      0.35034387
      0.87138578      0.50627999      0.39633967
