1.0
     11.72462000      0.00000000      0.00000000
      0.00000000     11.72462000      0.00000000
      0.00000000      0.00000000     40.00000000
    N     O     Cu    Au
     1     2    32    64
Direct
      0.74402492      0.49292175      0.54096353
      0.83908372      0.50569434      0.52641958
      0.65450371      0.48299286      0.52340338
      0.63289160      0.74201189      0.39587607
      0.51160401      0.35608430      0.44156645
      0.49530167      0.64433768      0.44094758
      0.76130345      0.12665300      0.44071781
      0.64800105      0.98932009      0.47995737
      0.75156570      0.38207211      0.34928109
      0.76569420      0.36607329      0.43928000
      0.65610344      0.25647371      0.47906926
      0.74840314      0.62198677      0.35051911
      0.76386150      0.63758809      0.44129490
      0.63403447      0.50062573      0.47361558
      0.76068671      0.12807196      0.34764622
      0.99473690      0.12224822      0.34733809
      0.88199543      0.00525493      0.38972564
      0.87327366      0.23842313      0.39231378
      0.98953043      0.36062676      0.43684626
      0.87755716      0.25088305      0.47949161
      0.99345724      0.63417893      0.44149643
      0.87219415      0.49360471      0.47706528
      0.99726288      0.87247650      0.34813485
      0.87776925      0.73989355      0.39401508
      0.87671925      0.75534353      0.48221370
      0.25045697      0.87260546      0.34610374
      0.25393419      0.12225279      0.34751640
      0.23630496      0.11113233      0.43758893
      0.23415465      0.37143475      0.43926683
      0.11585641      0.24602689      0.47779961
      0.24715986      0.62663589      0.34861595
      0.12707952      0.75478090      0.39076288
      0.23882282      0.87895280      0.43902210
      0.36088530      0.00051553      0.39514235
      0.35666989      0.00099593      0.47762026
      0.75000000      0.37500000      0.25000000
      0.62500000      0.25000000      0.30181575
     -0.00000000      0.12500000      0.25000000
      0.50000000      0.37500000      0.25000000
      0.75000000      0.87500000      0.25000000
      0.87500000      0.50000000      0.30181575
      0.75000000      0.62500000      0.25000000
      0.12500000      0.00000000      0.30181575
     -0.00000000      0.37500000      0.25000000
      0.62500000     -0.00000000      0.30181575
      0.62500000      0.50000000      0.30181575
      0.50000000      0.12500000      0.25000000
      0.12500000      0.25000000      0.30181575
      0.00000000      0.62500000      0.25000000
      0.12500000      0.50000000      0.30181575
      0.87500000      0.25000000      0.30181575
      0.87500000      0.75000000      0.30181575
      0.00000000      0.87500000      0.25000000
      0.12500000      0.75000000      0.30181575
      0.87500000     -0.00000000      0.30181575
      0.25000000      0.12500000      0.25000000
      0.50000000      0.62500000      0.25000000
      0.37500000      0.75000000      0.30181575
      0.37500000     -0.00000000      0.30181575
      0.25000000      0.87500000      0.25000000
      0.75000000      0.12500000      0.25000000
      0.62500000      0.75000000      0.30181575
      0.25000000      0.37500000      0.25000000
      0.37500000      0.50000000      0.30181575
      0.50000000      0.87500000      0.25000000
      0.25000000      0.62500000      0.25000000
      0.37500000      0.25000000      0.30181575
      0.38661222      0.48982098      0.47855158
      0.12977662      0.99310544      0.38780963
      0.13006602      0.00667085      0.48706585
      0.25259107      0.37865296      0.35089808
      0.12334943      0.24034349      0.39336616
      0.12105283      0.50639688      0.39752649
      0.23183458      0.63997138      0.44448827
      0.10196515      0.47894477      0.48218813
      0.10465608      0.75989715      0.49136043
      0.49520685      0.12435870      0.35139150
      0.51382262      0.12507544      0.44667059
      0.50586780      0.37774124      0.35264325
      0.36890300      0.24066833      0.39966648
      0.34421057      0.24341831      0.48181633
      0.50424093      0.62722866      0.35258522
      0.37451995      0.50090019      0.40174778
      0.00365040      0.86743265      0.43505722
      0.49999616      0.87679978      0.35333872
      0.35443941      0.75446269      0.39446203
      0.49927379      0.88254033      0.43734729
      0.37205410      0.76849709      0.48693959
      0.64400745      0.01344539      0.39460327
      0.64725800      0.25411220      0.39518046
      0.62799190      0.50860158      0.40380869
      0.75847470      0.86478868      0.35222705
      0.76295995      0.86861233      0.43599741
      0.63176005      0.74600184      0.48450996
      0.99005662      0.11960743      0.43776811
      0.87156300      1.00197673      0.48860857
      0.98893067      0.37112957      0.35133399
     -0.00054602      0.63301515      0.35064900
      0.86956180      0.50474234      0.39832133
