1.0
     11.72462000      0.00000000      0.00000000
      0.00000000     11.72462000      0.00000000
      0.00000000      0.00000000     40.00000000
    N     O     Cu    Au
     1     3    32    64
Direct
      0.74777234      0.49671585      0.53892319
      0.84295492      0.51810217      0.52339380
      0.65626600      0.47169677      0.52181389
      0.74416319      0.49979261      0.56956327
      0.63286799      0.74328798      0.39573408
      0.51212732      0.35573966      0.44105460
      0.49712334      0.64470869      0.44074348
      0.76022937      0.12746295      0.44082225
      0.64788587      0.98894564      0.48034506
      0.75193114      0.38273965      0.34935693
      0.76524538      0.36214623      0.43812499
      0.65638555      0.25923361      0.47956226
      0.74883674      0.62217079      0.35064459
      0.76291961      0.63921185      0.44086665
      0.63378197      0.50094134      0.47270043
      0.76042755      0.12723969      0.34741712
      0.99484588      0.12189691      0.34725365
      0.88169731      0.00487309      0.38964317
      0.87285569      0.23694135      0.39177334
      0.98963569      0.35809218      0.43617905
      0.87770363      0.25052688      0.47935691
      0.99392445      0.63635152      0.44134072
      0.87209048      0.48967791      0.47493196
      0.99724769      0.87252839      0.34808482
      0.87787193      0.74146444      0.39389265
      0.87650914      0.75601478      0.48227753
      0.25062772      0.87233875      0.34609397
      0.25402480      0.12212026      0.34742178
      0.23667807      0.11112611      0.43750634
      0.23446013      0.37107607      0.43906576
      0.11601819      0.24539463      0.47762455
      0.24733680      0.62684785      0.34866710
      0.12707036      0.75490207      0.39080940
      0.23896240      0.87922647      0.43913194
      0.36093502      0.00053772      0.39513196
      0.35703023      0.00160462      0.47762825
      0.75000000      0.37500000      0.25000000
      0.62500000      0.25000000      0.30181575
      0.00000000      0.12500000      0.25000000
      0.50000000      0.37500000      0.25000000
      0.75000000      0.87500000      0.25000000
      0.87500000      0.50000000      0.30181575
      0.75000000      0.62500000      0.25000000
      0.12500000     -0.00000000      0.30181575
      0.00000000      0.37500000      0.25000000
      0.62500000     -0.00000000      0.30181575
      0.62500000      0.50000000      0.30181575
      0.50000000      0.12500000      0.25000000
      0.12500000      0.25000000      0.30181575
      0.00000000      0.62500000      0.25000000
      0.12500000      0.50000000      0.30181575
      0.87500000      0.25000000      0.30181575
      0.87500000      0.75000000      0.30181575
      0.00000000      0.87500000      0.25000000
      0.12500000      0.75000000      0.30181575
      0.87500000     -0.00000000      0.30181575
      0.25000000      0.12500000      0.25000000
      0.50000000      0.62500000      0.25000000
      0.37500000      0.75000000      0.30181575
      0.37500000      0.00000000      0.30181575
      0.25000000      0.87500000      0.25000000
      0.75000000      0.12500000      0.25000000
      0.62500000      0.75000000      0.30181575
      0.25000000      0.37500000      0.25000000
      0.37500000      0.50000000      0.30181575
      0.50000000      0.87500000      0.25000000
      0.25000000      0.62500000      0.25000000
      0.37500000      0.25000000      0.30181575
      0.38793476      0.48993123      0.47817465
      0.13000205      0.99273483      0.38774717
      0.13023539      0.00763068      0.48705484
      0.25249163      0.37883610      0.35091198
      0.12382918      0.23970396      0.39309594
      0.12123698      0.50671365      0.39756723
      0.23175237      0.63997145      0.44465330
      0.10125358      0.47785832      0.48157168
      0.10489289      0.76092195      0.49135069
      0.49486507      0.12382966      0.35126283
      0.51533251      0.12587606      0.44696881
      0.50518250      0.37820100      0.35248911
      0.36931829      0.24034494      0.39961502
      0.34443134      0.24364202      0.48171824
      0.50425983      0.62762478      0.35258152
      0.37462036      0.50136444      0.40173905
      0.00365910      0.86825574      0.43516963
      0.49952770      0.87677497      0.35329650
      0.35450839      0.75451371      0.39463184
      0.49918146      0.88331025      0.43741810
      0.37276892      0.76826737      0.48685200
      0.64380129      0.01297857      0.39464842
      0.64628184      0.25291593      0.39436774
      0.62867536      0.50843519      0.40340956
      0.75815250      0.86513524      0.35203736
      0.76308145      0.86944998      0.43620967
      0.63180364      0.74653942      0.48470133
      0.98982240      0.11929346      0.43747367
      0.87128779      1.00387834      0.48873181
      0.98877474      0.37139207      0.35143597
     -0.00067782      0.63315671      0.35069495
      0.87023579      0.50552061      0.39868582
