1.0
     11.72462000      0.00000000      0.00000000
      0.00000000     11.72462000      0.00000000
      0.00000000      0.00000000     40.00000000
    N     O     Cu    Au
     1     2    32    64
Direct
      0.50000000      0.50000000      0.55009399
      0.59370359      0.50000000      0.53509525
      0.40629641      0.50000000      0.53509525
      0.24973695      0.12625272      0.34468395
      0.24978399      0.12253464      0.43144974
      0.25031363      0.37439727      0.34481904
      0.25144339      0.37852412      0.43189613
      0.25031363      0.62560273      0.34481904
      0.25144339      0.62147588      0.43189613
      0.24973695      0.87374728      0.34468395
      0.24978399      0.87746536      0.43144974
      0.50000000      0.12637651      0.34471875
      0.50000000      0.12233783      0.43130110
      0.50000000      0.37448633      0.34479457
      0.50000000      0.37797625      0.43201364
      0.50000000      0.62551367      0.34479457
      0.50000000      0.62202375      0.43201364
      0.50000000      0.87362349      0.34471875
      0.50000000      0.87766217      0.43130110
      0.75026305      0.12625272      0.34468395
      0.75021601      0.12253464      0.43144974
      0.74968637      0.37439727      0.34481904
      0.74855661      0.37852412      0.43189613
      0.74968637      0.62560273      0.34481904
      0.74855661      0.62147588      0.43189613
      0.75026305      0.87374728      0.34468395
      0.75021601      0.87746536      0.43144974
     -0.00000000      0.12622780      0.34475056
      0.00000000      0.12331084      0.43161496
     -0.00000000      0.37367045      0.34473814
      0.00000000      0.37664156      0.43149402
     -0.00000000      0.62632955      0.34473814
      0.00000000      0.62335844      0.43149402
     -0.00000000      0.87377220      0.34475056
      0.00000000      0.87668916      0.43161496
      0.00000000      0.12500000      0.25000000
      0.12500000      0.00000000      0.30181650
      0.12534377      0.25045458      0.38832416
      0.12543035      0.25019258      0.47375109
      0.00000000      0.37500000      0.25000000
      0.12500000      0.25000000      0.30181650
      0.12491986      0.50000000      0.38737479
      0.12376671      0.50000000      0.47486633
     -0.00000000      0.62500000      0.25000000
      0.12500000      0.50000000      0.30181650
      0.12534377      0.74954542      0.38832416
      0.12543035      0.74980742      0.47375109
     -0.00000000      0.87500000      0.25000000
      0.12500000      0.75000000      0.30181650
      0.12469389      0.00000000      0.38743282
      0.12491068      0.00000000      0.47489882
      0.25000000      0.12500000      0.25000000
      0.37500000     -0.00000000      0.30181650
      0.37502975      0.25019090      0.38827947
      0.37511054      0.24845242      0.47365534
      0.25000000      0.37500000      0.25000000
      0.37500000      0.25000000      0.30181650
      0.37537292      0.50000000      0.38779592
      0.37394707      0.50000000      0.47605551
      0.25000000      0.62500000      0.25000000
      0.37500000      0.50000000      0.30181650
      0.37502975      0.74980910      0.38827947
      0.37511054      0.75154758      0.47365534
      0.25000000      0.87500000      0.25000000
      0.37500000      0.75000000      0.30181650
      0.37476364      0.00000000      0.38714956
      0.37504096      0.00000000      0.47487770
      0.50000000      0.12500000      0.25000000
      0.62500000      0.00000000      0.30181650
      0.62497025      0.25019090      0.38827947
      0.62488946      0.24845242      0.47365534
      0.50000000      0.37500000      0.25000000
      0.62500000      0.25000000      0.30181650
      0.62462708      0.50000000      0.38779592
      0.62605293      0.50000000      0.47605551
      0.50000000      0.62500000      0.25000000
      0.62500000      0.50000000      0.30181650
      0.62497025      0.74980910      0.38827947
      0.62488946      0.75154758      0.47365534
      0.50000000      0.87500000      0.25000000
      0.62500000      0.75000000      0.30181650
      0.62523636      0.00000000      0.38714956
      0.62495903      0.00000000      0.47487770
      0.75000000      0.12500000      0.25000000
      0.87500000      0.00000000      0.30181650
      0.87465623      0.25045458      0.38832416
      0.87456965      0.25019258      0.47375109
      0.75000000      0.37500000      0.25000000
      0.87500000      0.25000000      0.30181650
      0.87508014      0.50000000      0.38737479
      0.87623329      0.50000000      0.47486633
      0.75000000      0.62500000      0.25000000
      0.87500000      0.50000000      0.30181650
      0.87465623      0.74954542      0.38832416
      0.87456965      0.74980742      0.47375109
      0.75000000      0.87500000      0.25000000
      0.87500000      0.75000000      0.30181650
      0.87530611      0.00000000      0.38743282
      0.87508932      0.00000000      0.47489882
