
1.0
     11.72462000      0.00000000      0.00000000
      0.00000000     11.72462000      0.00000000
      0.00000000      0.00000000     40.00000000
    N     O     Cu    Au
     1     3    32    64
Direct
      0.47400735      0.50000254      0.55092328
      0.57223701      0.49999715      0.53654564
      0.37985092      0.49999737      0.53357405
      0.46700803      0.49999698      0.58168748
      0.24990370      0.12648773      0.34480530
      0.24927999      0.12206866      0.43156364
      0.25020157      0.37362570      0.34484392
      0.25058646      0.37920720      0.43183994
      0.25020159      0.62637452      0.34484392
      0.25058624      0.62079250      0.43183999
      0.24990380      0.87351230      0.34480529
      0.24927966      0.87793140      0.43156358
      0.49992737      0.12657094      0.34478921
      0.50043447      0.12167853      0.43161507
      0.49945106      0.37338135      0.34475659
      0.50059097      0.38093821      0.43219531
      0.49945111      0.62661878      0.34475658
      0.50059127      0.61906124      0.43219534
      0.49992735      0.87342906      0.34478921
      0.50043513      0.87832139      0.43161509
      0.75035920      0.12659177      0.34481624
      0.74915073      0.12200509      0.43179094
      0.75018158      0.37330371      0.34474515
      0.74502720      0.38151266      0.43237777
      0.75018158      0.62669609      0.34474513
      0.74502712      0.61848663      0.43237778
      0.75035925      0.87340834      0.34481624
      0.74915060      0.87799469      0.43179096
     -0.00063433      0.12673350      0.34488606
     -0.00007890      0.12275986      0.43176389
     -0.00056442      0.37325306      0.34484352
     -0.00002776      0.37754261      0.43165409
     -0.00056446      0.62674679      0.34484350
     -0.00002753      0.62245743      0.43165404
     -0.00063446      0.87326666      0.34488605
     -0.00007894      0.87724004      0.43176385
      0.00000000      0.12500000      0.25000000
      0.12500000      0.00000000      0.30181650
      0.12497733      0.25033265      0.38848495
      0.12501930      0.25026268      0.47378345
      0.00000000      0.37500000      0.25000000
      0.12500000      0.25000000      0.30181650
      0.12440271      0.50000002      0.38713609
      0.12247040      0.49999999      0.47518005
      0.00000000      0.62500000      0.25000000
      0.12500000      0.50000000      0.30181650
      0.12497733      0.74966741      0.38848487
      0.12501913      0.74973749      0.47378352
      0.00000000      0.87500000      0.25000000
      0.12500000      0.75000000      0.30181650
      0.12445608      0.00000004      0.38728274
      0.12464350      0.00000002      0.47516306
      0.25000000      0.12500000      0.25000000
      0.37500000      0.00000000      0.30181650
      0.37519421      0.25021297      0.38871715
      0.37495228      0.24869245      0.47334096
      0.25000000      0.37500000      0.25000000
      0.37500000      0.25000000      0.30181650
      0.37487139      0.50000016      0.38749886
      0.37249749      0.50000058      0.47603817
      0.25000000      0.62500000      0.25000000
      0.37500000      0.50000000      0.30181650
      0.37519430      0.74978718      0.38871722
      0.37495242      0.75130746      0.47334081
      0.25000000      0.87500000      0.25000000
      0.37500000      0.75000000      0.30181650
      0.37486404     -0.00000003      0.38729179
      0.37457584     -0.00000046      0.47515210
      0.50000000      0.12500000      0.25000000
      0.62500000     -0.00000000      0.30181650
      0.62462625      0.25042927      0.38859004
      0.62398645      0.24898665      0.47393727
      0.50000000      0.37500000      0.25000000
      0.62500000      0.25000000      0.30181650
      0.62433152      0.49999990      0.38674887
      0.62509024      0.49999963      0.47795743
      0.50000000      0.62500000      0.25000000
      0.62500000      0.50000000      0.30181650
      0.62462634      0.74957057      0.38859001
      0.62398681      0.75101271      0.47393739
      0.50000000      0.87500000      0.25000000
      0.62500000      0.75000000      0.30181650
      0.62505331     -0.00000003      0.38714084
      0.62471946     -0.00000013      0.47550731
      0.75000000      0.12500000      0.25000000
      0.87500000     -0.00000000      0.30181650
      0.87375750      0.25084076      0.38901524
      0.87365604      0.25075236      0.47349618
      0.75000000      0.37500000      0.25000000
      0.87500000      0.25000000      0.30181650
      0.87427166      0.49999992      0.38752769
      0.87513457      0.49999984      0.47532960
      0.75000000      0.62500000      0.25000000
      0.87500000      0.50000000      0.30181650
      0.87375741      0.74915908      0.38901523
      0.87365608      0.74924728      0.47349611
      0.75000000      0.87500000      0.25000000
      0.87500000      0.75000000      0.30181650
      0.87484987     -0.00000004      0.38755702
      0.87485508     -0.00000010      0.47511582
