
1.0
     11.72462000      0.00000000      0.00000000
      0.00000000     11.72462000      0.00000000
      0.00000000      0.00000000     40.00000000
    N     O     Cu    Au
     1     3    32    64
Direct
      0.74771126      0.50925348      0.53799639
      0.83934200      0.53907058      0.52171507
      0.65946977      0.47163965      0.52155421
      0.74452374      0.51678600      0.56853881
      0.63249430      0.74354311      0.39577240
      0.51204807      0.35567600      0.44099292
      0.49547498      0.64481431      0.44077458
      0.76014369      0.12754176      0.44086271
      0.64755174      0.98884655      0.48038445
      0.75177567      0.38278769      0.34934825
      0.76532785      0.36226751      0.43799557
      0.65688777      0.26000702      0.47960082
      0.74865455      0.62232543      0.35063369
      0.76252240      0.63967607      0.44075375
      0.63305243      0.50119613      0.47250420
      0.76034601      0.12721006      0.34738947
      0.99478528      0.12193324      0.34720773
      0.88159543      0.00488147      0.38963083
      0.87284091      0.23682109      0.39168929
      0.98946496      0.35846729      0.43610346
      0.87780878      0.25121082      0.47936260
      0.99414599      0.63721991      0.44119344
      0.87223905      0.48952921      0.47467223
      0.99696173      0.87249365      0.34803843
      0.87793596      0.74203948      0.39388639
      0.87618720      0.75601847      0.48240301
      0.25049065      0.87238670      0.34607229
      0.25382799      0.12211972      0.34742012
      0.23521516      0.11126738      0.43743926
      0.23412009      0.37101223      0.43904878
      0.11563298      0.24562438      0.47766821
      0.24702178      0.62682432      0.34865283
      0.12675766      0.75503263      0.39088191
      0.23883172      0.87975258      0.43909097
      0.36038953      0.00075408      0.39503566
      0.35662423      0.00325124      0.47755100
      0.75000000      0.37500000      0.25000000
      0.62500000      0.25000000      0.30181575
     -0.00000000      0.12500000      0.25000000
      0.50000000      0.37500000      0.25000000
      0.75000000      0.87500000      0.25000000
      0.87500000      0.50000000      0.30181575
      0.75000000      0.62500000      0.25000000
      0.12500000     -0.00000000      0.30181575
      0.00000000      0.37500000      0.25000000
      0.62500000     -0.00000000      0.30181575
      0.62500000      0.50000000      0.30181575
      0.50000000      0.12500000      0.25000000
      0.12500000      0.25000000      0.30181575
      0.00000000      0.62500000      0.25000000
      0.12500000      0.50000000      0.30181575
      0.87500000      0.25000000      0.30181575
      0.87500000      0.75000000      0.30181575
      0.00000000      0.87500000      0.25000000
      0.12500000      0.75000000      0.30181575
      0.87500000     -0.00000000      0.30181575
      0.25000000      0.12500000      0.25000000
      0.50000000      0.62500000      0.25000000
      0.37500000      0.75000000      0.30181575
      0.37500000      0.00000000      0.30181575
      0.25000000      0.87500000      0.25000000
      0.75000000      0.12500000      0.25000000
      0.62500000      0.75000000      0.30181575
      0.25000000      0.37500000      0.25000000
      0.37500000      0.50000000      0.30181575
      0.50000000      0.87500000      0.25000000
      0.25000000      0.62500000      0.25000000
      0.37500000      0.25000000      0.30181575
      0.38772487      0.48916854      0.47824042
      0.12951171      0.99264217      0.38769917
      0.12983128      0.00786153      0.48717372
      0.25241743      0.37874407      0.35090660
      0.12339828      0.23983226      0.39304318
      0.12124005      0.50694571      0.39758477
      0.23215732      0.63981932      0.44476007
      0.10078750      0.47804766      0.48156602
      0.10509893      0.76116502      0.49134603
      0.49482103      0.12382958      0.35127238
      0.51596132      0.12640571      0.44701112
      0.50510946      0.37814926      0.35249891
      0.36902692      0.24003399      0.39965995
      0.34402862      0.24326451      0.48163031
      0.50408074      0.62766278      0.35257650
      0.37441500      0.50111695      0.40170697
      0.00345107      0.86856796      0.43530633
      0.49937294      0.87679736      0.35332148
      0.35404482      0.75448102      0.39458603
      0.49826021      0.88403601      0.43729806
      0.37172452      0.77001666      0.48692693
      0.64383945      0.01295788      0.39465649
      0.64631146      0.25292018      0.39433256
      0.62833894      0.50876494      0.40341721
      0.75796205      0.86516066      0.35202044
      0.76293842      0.86952461      0.43628628
      0.63021024      0.74708865      0.48443555
      0.98951673      0.11943691      0.43748996
      0.87098940      1.00406836      0.48878266
      0.98862109      0.37165490      0.35142654
     -0.00071603      0.63327845      0.35069991
      0.87002072      0.50599431      0.39862005
