1.0
     11.72462000      0.00000000      0.00000000
      0.00000000     10.15381800      0.00000000
      0.00000000      0.00000000     40.00000000
    Cu    Au
    31    64
Direct
      0.60552887      0.92337475      0.36426211
      0.31068123      0.37543567      0.51809086
      0.36625701      0.58329730      0.42022923
      0.22890311      0.50366279      0.47175547
      0.36998844      0.92978054      0.36477416
      0.34125497      0.73737438      0.46893714
      0.34988752      0.89503065      0.52065814
      0.49517458     -0.01075265      0.47768015
      0.74931050      0.30962644      0.42245677
      0.62227124      0.45770428      0.51910820
      0.74176200      0.66319389      0.36303359
      0.13258843      0.09684234      0.41568697
      0.63807736      0.77677162      0.46700792
      0.64906668      0.91166811      0.52001269
      1.00734705      0.15768998      0.36554768
      0.88907560      0.09166387      0.41676308
      1.00014013      0.16997692      0.52589691
      0.99531107      0.30960622      0.42019064
      0.87316916      0.24897615      0.47151592
      0.74891841      0.47449522      0.47080997
      0.88365227      0.92864394      0.36295696
      0.87874523      0.91105197      0.52230896
      0.49767314      0.32377745      0.42148427
      0.25035668      0.16350245      0.36445681
      0.23413457      0.14397306      0.52290092
      0.13599003      0.93764886      0.36373869
      0.24456786      0.84968673      0.41621667
      0.12223470      0.76837382      0.47209373
      0.48470842      0.16387852      0.36450673
      0.36371291      0.08345203      0.41470088
      0.38408867      0.21658131      0.47421692
      0.24999999      0.50000002      0.30983183
      0.49999998      0.83333303      0.25000034
      0.37499999      0.58333302      0.25000034
      0.37499999      0.25000001      0.30983183
      0.49999998      0.33333334      0.25000034
      0.24999999      0.00000000      0.30983183
      0.37499999      0.08333300      0.25000034
      0.12500000      0.75000003      0.30983183
      0.24999999      0.83333303      0.25000034
      0.00000000      0.50000002      0.30983183
      0.12500000      0.58333302      0.25000034
      0.12500000      0.25000001      0.30983183
      0.24999999      0.33333334      0.25000034
      0.00000000      0.00000000      0.30983183
      0.12500000      0.08333300      0.25000034
      0.87499997      0.75000003      0.30983183
      0.87499997      0.25000001      0.30983183
      0.37499999      0.75000003      0.30983183
      0.62499998      0.08333300      0.25000034
      0.49999998      0.00000000      0.30983183
      0.74999997      0.33333334      0.25000034
      0.62499998      0.25000001      0.30983183
      0.62499998      0.58333302      0.25000034
      0.99999997      0.83333303      0.25000034
      0.49999998      0.50000002      0.30983183
      0.74999997      0.50000002      0.30983183
      0.74999997      0.83333303      0.25000034
      0.62499998      0.75000003      0.30983183
      0.87499997      0.08333300      0.25000034
      0.74999997      0.00000000      0.30983183
      0.99999997      0.33333334      0.25000034
      0.87499997      0.58333302      0.25000034
      0.74636423      0.84402469      0.41032046
      0.50474939      0.67343718      0.36750160
      0.38172184      0.41476563      0.36759110
      0.50289654      0.70669662      0.51584611
      0.25903447     -0.00167345      0.46855768
      0.47399436      0.83868616      0.42210314
      0.74822950      0.14757453      0.36851785
      0.59105849      0.08624045      0.41903785
      0.11822499      0.91918889      0.52857890
      0.77348124      0.14242683      0.52880881
      0.62816424      0.40497271      0.37003692
      0.61319409      0.25058002      0.47854035
      0.60446526      0.57560865      0.42634097
      0.45445459      0.47502979      0.47609724
      0.74779198      0.67100349      0.52157503
      0.24437033      0.65326243      0.52494517
      0.88194209      0.76187722      0.46760289
      0.98545430      0.49069313      0.46995058
      0.12778821      0.60149600      0.42143789
      0.25396128      0.68262575      0.36706627
      0.09863355      0.41228315      0.53268393
      0.75056663      0.01274611      0.46744724
      0.12563005      0.25738653      0.47371543
      0.87623554      0.39358940      0.36838840
      0.26608542      0.32334693      0.42208901
      0.12295775      0.40382875      0.36922946
      0.85115227      0.40546713      0.52756315
      0.98994145      0.66950284      0.36641098
      0.84527651      0.57623632      0.41753926
     -0.00375700      0.67287105      0.52696352
      1.00083899      0.02069328      0.47145335
      1.01464637      0.86397313      0.41450617
