1.0
     11.72461960      0.00000000      0.00000000
      0.00000000     11.72461960      0.00000000
      0.00000000      0.00000000     25.00000000
    Cu    Au
    16    48
Direct
      1.00000000      0.12500000      0.55288172
      1.00000000      0.37500000      0.55288172
      0.00000000      0.62500000      0.55288172
      1.00000000      0.87500000      0.55288172
      0.25000000      0.12500000      0.55288172
      0.25000000      0.37500000      0.55288172
      0.25000000      0.62500000      0.55288172
      0.25000000      0.87500000      0.55288172
      0.50000000      0.12500000      0.55288172
      0.50000000      0.37500000      0.55288172
      0.50000000      0.62500000      0.55288172
      0.50000000      0.87500000      0.55288172
      0.75000000      0.12500000      0.55288172
      0.75000000      0.37500000      0.55288172
      0.75000000      0.62500000      0.55288172
      0.75000000      0.87500000      0.55288172
      0.00000000      0.12500000      0.40000034
      0.12500000      0.00000000      0.48290591
      0.12500000     -0.00000000      0.62176464
      0.00000000      0.37500000      0.40000034
      0.12500000      0.25000000      0.48290591
      0.12500000      0.25000000      0.62176464
      0.00000000      0.62500000      0.40000034
      0.12500000      0.50000000      0.48290591
      0.12500000      0.50000000      0.62176464
      0.00000000      0.87500000      0.40000034
      0.12500000      0.75000000      0.48290591
      0.12500001      0.75000000      0.62176464
      0.25000000      0.12500000      0.40000034
      0.37500000      0.00000000      0.48290591
      0.37500000     -0.00000000      0.62176464
      0.25000000      0.37500000      0.40000034
      0.37500000      0.25000000      0.48290591
      0.37500000      0.25000000      0.62176464
      0.25000000      0.62500000      0.40000034
      0.37500000      0.50000000      0.48290591
      0.37500000      0.50000000      0.62176464
      0.25000000      0.87500000      0.40000034
      0.37500000      0.75000000      0.48290591
      0.37500000      0.75000000      0.62176464
      0.50000000      0.12500000      0.40000034
      0.62500000      0.00000000      0.48290591
      0.62500000      0.00000000      0.62176464
      0.50000000      0.37500000      0.40000034
      0.62500000      0.25000000      0.48290591
      0.62500000      0.25000000      0.62176464
      0.50000000      0.62500000      0.40000034
      0.62500000      0.50000000      0.48290591
      0.62500000      0.50000000      0.62176464
      0.50000000      0.87500000      0.40000034
      0.62500000      0.75000000      0.48290591
      0.62500000      0.75000000      0.62176464
      0.75000000      0.12500000      0.40000034
      0.87500000      0.00000000      0.48290591
      0.87500000      0.00000000      0.62176464
      0.75000000      0.37500000      0.40000034
      0.87500000      0.25000000      0.48290591
      0.87500000      0.25000000      0.62176464
      0.75000000      0.62500000      0.40000034
      0.87500000      0.50000000      0.48290591
      0.87500000      0.50000000      0.62176464
      0.75000000      0.87500000      0.40000034
      0.87500000      0.75000000      0.48290591
      0.87500000      0.75000000      0.62176464
