1.0
     11.72461960      0.00000000      0.00000000
      0.00000000     11.72461960      0.00000000
      0.00000000      0.00000000     25.00000000
    Cu    Au
    15    48
Direct
      0.00000000      0.12500000      0.55273963
      0.00000000      0.37461128      0.55286986
      0.00000000      0.62500000      0.55281095
      0.00000000      0.87538872      0.55286986
      0.24982887      0.12500000      0.55288273
      0.24987076      0.37453054      0.55265893
      0.24833156      0.62500000      0.55170401
      0.24987076      0.87546946      0.55265893
      0.50000000      0.12500000      0.55282941
      0.50000000      0.37287990      0.55171464
      0.50000000      0.87712010      0.55171464
      0.75017113      0.12500000      0.55288273
      0.75012924      0.37453054      0.55265893
      0.75166844      0.62500000      0.55170401
      0.75012924      0.87546946      0.55265893
      0.00000000      0.12500000      0.40000034
      0.12500000      0.00000000      0.48290591
      0.12496569      0.00008037      0.62172127
      0.00000000      0.37500000      0.40000034
      0.12500000      0.25000000      0.48290591
      0.12496569      0.24991963      0.62172127
      0.00000000      0.62500000      0.40000034
      0.12500000      0.50000000      0.48290591
      0.12569453      0.50011082      0.62123683
      0.00000000      0.87500000      0.40000034
      0.12500000      0.75000000      0.48290591
      0.12569453      0.74988918      0.62123683
      0.25000000      0.12500000      0.40000034
      0.37500000      0.00000000      0.48290591
      0.37515663     -0.00059505      0.62137692
      0.25000000      0.37500000      0.40000034
      0.37500000      0.25000000      0.48290591
      0.37515663      0.25059505      0.62137692
      0.25000000      0.62500000      0.40000034
      0.37500000      0.50000000      0.48290591
      0.37863614      0.50354866      0.61734739
      0.25000000      0.87500000      0.40000034
      0.37500000      0.75000000      0.48290591
      0.37863614      0.74645134      0.61734739
      0.50000000      0.12500000      0.40000034
      0.62500000      0.00000000      0.48290591
      0.62484337     -0.00059505      0.62137692
      0.50000000      0.37500000      0.40000034
      0.62500000      0.25000000      0.48290591
      0.62484337      0.25059505      0.62137692
      0.50000000      0.62500000      0.40000034
      0.62500000      0.50000000      0.48290591
      0.62136386      0.50354866      0.61734739
      0.50000000      0.87500000      0.40000034
      0.62500000      0.75000000      0.48290591
      0.62136386      0.74645134      0.61734739
      0.75000000      0.12500000      0.40000034
      0.87500000      0.00000000      0.48290591
      0.87503431      0.00008037      0.62172127
      0.75000000      0.37500000      0.40000034
      0.87500000      0.25000000      0.48290591
      0.87503431      0.24991963      0.62172127
      0.75000000      0.62500000      0.40000034
      0.87500000      0.50000000      0.48290591
      0.87430547      0.50011082      0.62123683
      0.75000000      0.87500000      0.40000034
      0.87500000      0.75000000      0.48290591
      0.87430547      0.74988918      0.62123683
