
1.0
     11.72461960      0.00000000      0.00000000
      0.00000000     11.72461960      0.00000000
      0.00000000      0.00000000     25.00000000
    Cu    Au
    16    48
Direct
      0.50175896      0.87167728      0.55366152
      0.87478522      0.26168992      0.61790949
     -0.00154046      0.38247997      0.55437868
     -0.00653040      0.86787626      0.55645921
      0.74909668      0.87285474      0.55389247
      0.63687996      0.51107861      0.61844802
      0.75152751      0.62551226      0.55368431
      0.74971715      0.37663016      0.55287862
      0.75081046      0.12263548      0.55623040
      0.38839331      0.73950937      0.61743174
      0.36539893      0.52178802      0.61949813
      0.49974624      0.62005880      0.55392276
      0.39473580     -0.02747947      0.62509709
      0.14628586      0.49799613      0.62126362
      0.25217193      0.62450841      0.55312900
      0.24573278      0.37845859      0.55306011
      0.37500000      0.75000000      0.48290605
      0.25000000      0.87500000      0.39999994
      0.37500000      0.00000000      0.48290605
      0.37500000      0.50000000      0.48290605
      0.50000000      0.12500000      0.39999994
      0.25000000      0.62500000      0.39999994
      0.62500000      0.00000000      0.48290605
      0.37500000      0.25000000      0.48290605
      0.25000000      0.37500000      0.39999994
      0.50000000      0.37500000      0.39999994
      0.62500000      0.25000000      0.48290605
      0.00000000      0.12500000      0.39999994
      0.50000000      0.62500000      0.39999994
      0.62500000      0.50000000      0.48290605
      0.50000000      0.87500000      0.39999994
      0.62500000      0.75000000      0.48290605
      0.75000000      0.12500000      0.39999994
      0.87500000      0.00000000      0.48290605
      0.75000000      0.37500000      0.39999994
      0.87500000      0.25000000      0.48290605
      0.75000000      0.62500000      0.39999994
      0.87500000      0.50000000      0.48290605
      0.75000000      0.87500000      0.39999994
      0.87500000      0.75000000      0.48290605
      0.86285991     -0.00695290      0.63013253
      0.10364303     -0.03639336      0.63720487
      0.10302893      0.28162325      0.63310900
      0.25211233      0.87255993      0.56161626
      0.16327068      0.72120961      0.63934942
      0.49266981      0.13239412      0.56603280
      0.50009693      0.38279892      0.56463728
      0.34314349      0.29797450      0.63859064
      0.62450176     -0.01273816      0.62804998
      0.65402479      0.25619080      0.62998079
      0.61595768      0.73996467      0.62365613
      0.00038045      0.12319456      0.56256724
      0.25000000      0.12500000      0.39999994
      0.00668358      0.62523689      0.56383360
      0.86219416      0.48929631      0.62737304
      0.86009007      0.74943825      0.62933499
      0.24854294      0.12157394      0.57246973
      0.12500000      0.00000000      0.48290605
      0.00000000      0.37500000      0.39999994
      0.12500000      0.25000000      0.48290605
      0.00000000      0.62500000      0.39999994
      0.12500000      0.50000000      0.48290605
      0.00000000      0.87500000      0.39999994
      0.12500000      0.75000000      0.48290605
