
1.0
     11.72462000      0.00000000      0.00000000
      0.00000000     11.72462000      0.00000000
      0.00000000      0.00000000     25.00000000
    Cu    Au
    15    48
Direct
      0.49875635      0.87154097      0.55538813
      0.87635338      0.26121417      0.62054119
     -0.00260263      0.37890712      0.55504829
     -0.00444941      0.87000368      0.55661135
      0.75061302      0.87343382      0.55400059
      0.63745308      0.51149831      0.61755132
      0.75423936      0.62402682      0.55361783
      0.75170605      0.37574250      0.55305939
      0.75109698      0.12521092      0.55736081
      0.35609818      0.50615508      0.61737092
      0.48886354      0.62310758      0.55676754
      0.39240444     -0.00635536      0.62557447
      0.13916107      0.50110576      0.62004433
      0.25071907      0.62825205      0.55566008
      0.24520195      0.37747458      0.55419412
      0.37499999      0.74999997      0.48290605
      0.24999999      0.87499997      0.39999994
      0.37499999      0.00000000      0.48290605
      0.37499999      0.49999998      0.48290605
      0.49999998      0.12500000      0.39999994
      0.24999999      0.62499998      0.39999994
      0.62499998      0.00000000      0.48290605
      0.37499999      0.24999999      0.48290605
      0.24999999      0.37499999      0.39999994
      0.49999998      0.37499999      0.39999994
      0.62499998      0.24999999      0.48290605
      0.00000000      0.12500000      0.39999994
      0.49999998      0.62499998      0.39999994
      0.62499998      0.49999998      0.48290605
      0.49999998      0.87499997      0.39999994
      0.62499998      0.74999997      0.48290605
      0.74999997      0.12500000      0.39999994
      0.87499997      0.00000000      0.48290605
      0.74999997      0.37499999      0.39999994
      0.87499997      0.24999999      0.48290605
      0.74999997      0.62499998      0.39999994
      0.87499997      0.49999998      0.48290605
      0.74999997      0.87499997      0.39999994
      0.87499997      0.74999997      0.48290605
      0.86450670     -0.00561141      0.63032884
      0.11099872     -0.02458032      0.63435849
      0.11011436      0.28102965      0.63299020
      0.26646171      0.86183867      0.56696260
      0.12911336      0.73201757      0.63554409
      0.50099227      0.13389216      0.56463608
      0.50150653      0.38432350      0.56371456
      0.35370792      0.27809891      0.63643764
      0.62465683     -0.01505711      0.62819986
      0.65498457      0.26211271      0.63161541
      0.62161659      0.73914478      0.62001635
     -0.00184325      0.12684929      0.56224368
      0.24999999      0.12500000      0.39999994
     -0.00057932      0.61966494      0.56071225
      0.86186279      0.48717972      0.62922376
      0.86666816      0.75087838      0.63032741
      0.24844973      0.12022620      0.56684065
      0.12500000      0.00000000      0.48290605
      0.00000000      0.37499999      0.39999994
      0.12500000      0.24999999      0.48290605
      0.00000000      0.62499998      0.39999994
      0.12500000      0.49999998      0.48290605
      0.00000000      0.87499997      0.39999994
      0.12500000      0.74999997      0.48290605
