1.0
     11.72462000      0.00000000      0.00000000
      0.00000000     11.72462000      0.00000000
      0.00000000      0.00000000     25.00000000
    Cu    Au
    15    48
Direct
      0.49819668      0.87714346      0.55571973
      0.87347057      0.26464911      0.61960767
     -0.00321382      0.38277737      0.55484839
     -0.00561850      0.86678197      0.55633619
      0.74981667      0.87219932      0.55368763
      0.63432016      0.51092251      0.61801850
      0.75097619      0.62434737      0.55352035
      0.74939446      0.37601561      0.55346832
      0.75404955      0.12263441      0.55588515
      0.38749117      0.72911843      0.61695673
      0.36494914      0.51478645      0.61737576
      0.50031190      0.61763219      0.55332062
      0.14542443      0.50016205      0.62076955
      0.25145383      0.62465586      0.55279038
      0.24530661      0.37814008      0.55340056
      0.37499999      0.74999997      0.48290605
      0.24999999      0.87499997      0.39999994
      0.37499999      0.00000000      0.48290605
      0.37499999      0.49999998      0.48290605
      0.49999998      0.12500000      0.39999994
      0.24999999      0.62499998      0.39999994
      0.62499998      0.00000000      0.48290605
      0.37499999      0.24999999      0.48290605
      0.24999999      0.37499999      0.39999994
      0.49999998      0.37499999      0.39999994
      0.62499998      0.24999999      0.48290605
      0.00000000      0.12500000      0.39999994
      0.49999998      0.62499998      0.39999994
      0.62499998      0.49999998      0.48290605
      0.49999998      0.87499997      0.39999994
      0.62499998      0.74999997      0.48290605
      0.74999997      0.12500000      0.39999994
      0.87499997      0.00000000      0.48290605
      0.74999997      0.37499999      0.39999994
      0.87499997      0.24999999      0.48290605
      0.74999997      0.62499998      0.39999994
      0.87499997      0.49999998      0.48290605
      0.74999997      0.87499997      0.39999994
      0.87499997      0.74999997      0.48290605
      0.86607142     -0.00957998      0.63083043
      0.10438653     -0.03336312      0.63500997
      0.10362548      0.28377081      0.63342575
      0.26602129      0.87918614      0.56512321
      0.15860486      0.72642006      0.63632746
      0.48540911      0.12432018      0.56735162
      0.50191837      0.37842219      0.56375874
      0.34571101      0.29114807      0.63745361
      0.62972064     -0.01068241      0.62590901
      0.65157618      0.24948355      0.62901010
      0.61471278      0.74164963      0.62199944
     -0.00251822      0.12603439      0.56295353
      0.24999999      0.12500000      0.39999994
      0.00469633      0.62442586      0.56314657
      0.86025799      0.49087780      0.62778359
      0.85910473      0.74784707      0.62975324
      0.24409502      0.12358552      0.56991279
      0.12500000      0.00000000      0.48290605
      0.00000000      0.37499999      0.39999994
      0.12500000      0.24999999      0.48290605
      0.00000000      0.62499998      0.39999994
      0.12500000      0.49999998      0.48290605
      0.00000000      0.87499997      0.39999994
      0.12500000      0.74999997      0.48290605
