1.0
     11.72462000      0.00000000      0.00000000
      0.00000000     11.72462000      0.00000000
      0.00000000      0.00000000     30.00000000
    Cu    Au
    31    64
Direct
      0.63570214      0.74944089      0.52735513
      0.51749977      0.35063042      0.58561905
      0.49981150      0.64465714      0.58348304
      0.76134343      0.13276968      0.58810346
      0.75315774      0.37931488      0.46476134
      0.76682068      0.36327995      0.58077917
      0.66126765      0.27456951      0.63956361
      0.74806784      0.62729494      0.46630685
      0.75616761      0.63997550      0.58350672
      0.63932776      0.49385453      0.62692654
      0.76051145      0.12254495      0.46323579
     -0.00477767      0.12023771      0.46338091
      0.88036623      1.00262485      0.52101112
      0.87362334      0.23733797      0.52087234
     -0.00865581      0.36115825      0.57834584
      0.88214244      0.26571744      0.63880075
     -0.00288644      0.63736728      0.58417780
      0.86342904      0.49878988      0.62947731
     -0.00411199      0.87376885      0.46445304
      0.87197130      0.74929373      0.52615629
      0.87564917      0.72788358      0.64166691
      0.24991402      0.87192149      0.46237817
      0.25474983      0.11855609      0.46428714
      0.23215633      0.11059563      0.58339815
      0.23324698      0.37910576      0.58718533
      0.11743210      0.24959090      0.63627007
      0.24683019      0.62815218      0.46478467
      0.12294702      0.75579161      0.52391286
      0.23216357      0.87331202      0.58682495
      0.36066264      0.99612492      0.52982826
      0.35600978      1.00055154      0.63362644
      0.74999997      0.37499999      0.33333355
      0.62499998      0.24999999      0.40242084
      0.99999997      0.12500000      0.33333355
      0.49999998      0.37499999      0.33333355
      0.74999997      0.87499997      0.33333355
      0.87499997      0.49999998      0.40242084
      0.74999997      0.62499998      0.33333355
      0.12500000      0.99999997      0.40242084
      0.99999997      0.37499999      0.33333355
      0.62499998      0.99999997      0.40242084
      0.62499998      0.49999998      0.40242084
      0.49999998      0.12500000      0.33333355
      0.12500000      0.24999999      0.40242084
      0.99999997      0.62499998      0.33333355
      0.12500000      0.49999998      0.40242084
      0.87499997      0.24999999      0.40242084
      0.87499997      0.74999997      0.40242084
      0.99999997      0.87499997      0.33333355
      0.12500000      0.74999997      0.40242084
      0.87499997      0.99999997      0.40242084
      0.24999999      0.12500000      0.33333355
      0.49999998      0.62499998      0.33333355
      0.37499999      0.74999997      0.40242084
      0.37499999      0.99999997      0.40242084
      0.24999999      0.87499997      0.33333355
      0.74999997      0.12500000      0.33333355
      0.62499998      0.74999997      0.40242084
      0.24999999      0.37499999      0.33333355
      0.37499999      0.49999998      0.40242084
      0.49999998      0.87499997      0.33333355
      0.24999999      0.62499998      0.33333355
      0.37499999      0.24999999      0.40242084
      0.40796830      0.48867693      0.63757510
      0.12781637      0.99010513      0.51836675
      0.12895300      1.00523338      0.64911680
      0.25376505      0.37735162      0.46758067
      0.12640479      0.23952178      0.52376282
      0.12333235      0.50777674      0.52838990
      0.23653693      0.62519958      0.59490394
      0.08314936      0.47931416      0.64310397
      0.10459776      0.75430789      0.65308088
      0.49469021      0.11994429      0.46929168
      0.52983584      0.12101246      0.59969079
      0.50400847      0.37441096      0.46925096
      0.37000291      0.23612718      0.53423585
      0.34875111      0.24266798      0.63869015
      0.50078898      0.63030368      0.47006497
      0.37714580      0.49704441      0.53511844
     -0.00739674      0.87099673      0.58293549
      0.49726220      0.87690292      0.47200555
      0.35047706      0.75412847      0.52784177
      0.50627623      0.88008069      0.58565855
      0.37228333      0.76590417      0.64774707
      0.64706650      1.00789244      0.52867011
      0.64731042      0.24791901      0.52424885
      0.62992045      0.50624244      0.53248269
      0.75732190      0.86866877      0.46832174
      0.75309979      0.87315737      0.59281152
      0.62885112      0.71541536      0.64864947
     -0.01050580      0.12445288      0.58288780
      0.87224369      1.02308562      0.65223350
     -0.00880304      0.37122667      0.46789049
     -0.00089763      0.63806056      0.46795642
      0.87021593      0.50831887      0.52847522
