1.0
     11.72462000      0.00000000      0.00000000
      0.00000000     11.72462000      0.00000000
      0.00000000      0.00000000     30.00000000
    Cu    Au
    31    64
Direct
      0.24984208      0.12491765      0.45930189
      0.24998211      0.12554819      0.57517728
      0.25090695      0.37673433      0.45975579
      0.24967850      0.37380841      0.57489951
      0.25142375      0.62492479      0.46009660
      0.24537162      0.62612785      0.57456241
      0.25083083      0.87384491      0.45965515
      0.24973112      0.87589308      0.57491991
      0.50004054      0.12502928      0.45927943
      0.50005832      0.12558543      0.57498123
      0.49996569      0.37725819      0.45996511
      0.50026653      0.37076287      0.57451214
      0.49998031      0.62479772      0.46002171
      0.49999998      0.87499997      0.45952946
      0.50027059      0.87909075      0.57452458
      0.74999997      0.12500000      0.45952946
      0.74996292      0.12546973      0.57521513
      0.74999997      0.37499999      0.45952946
      0.75027776      0.37394603      0.57493258
      0.74999997      0.62499998      0.45952946
      0.75455821      0.62607572      0.57455155
      0.74999997      0.87499997      0.45952946
      0.75023202      0.87575940      0.57494331
      0.99999997      0.12500000      0.45952946
      0.00024041      0.12540306      0.57517399
      0.99999997      0.37499999      0.45952946
      0.00011171      0.37403496      0.57521734
      0.99999997      0.62499998      0.45952946
     -0.00002261      0.62578834      0.57504665
      0.99999997      0.87499997      0.45952946
      0.00010220      0.87576666      0.57523811
      0.99999997      0.12500000      0.33333334
      0.12500000      0.00000000      0.40242153
      0.12517900      0.25000540      0.51664500
      0.12509908      0.24999640      0.63254080
      0.99999997      0.37499999      0.33333334
      0.12500000      0.24999999      0.40242153
      0.12487069      0.49975806      0.51671573
      0.12529484      0.49986332      0.63188763
      0.00000000      0.62499998      0.33333334
      0.12500000      0.49999998      0.40242153
      0.12493755      0.75065191      0.51649767
      0.12523029      0.75077170      0.63223625
      0.99999997      0.87499997      0.33333334
      0.12500000      0.74999997      0.40242153
      0.12512948      1.00023222      0.51680593
      0.12512791      0.00042822      0.63238553
      0.24999999      0.12500000      0.33333334
      0.37499999      0.00000000      0.40242153
      0.37477629      0.25013452      0.51628530
      0.37497657      0.25045331      0.63224837
      0.24999999      0.37499999      0.33333334
      0.37499999      0.24999999      0.40242153
      0.37728819      0.50252919      0.51889657
      0.37859715      0.50395546      0.62810144
      0.24999999      0.62499998      0.33333334
      0.37499999      0.49999998      0.40242153
      0.37748524      0.74839448      0.51844150
      0.37870286      0.74676033      0.62845894
      0.25039375      0.87511764      0.33165707
      0.37499999      0.74999997      0.40242153
      0.37471757      1.00032343      0.51651510
      0.37498243      0.00006895      0.63207668
      0.50028645      0.12500192      0.33171809
      0.62499998      0.00000000      0.40242153
      0.62525278      0.25017105      0.51635192
      0.62517655      0.25042445      0.63232105
      0.50032316      0.37488457      0.33164540
      0.62499998      0.24999999      0.40242153
      0.62364174      0.50240865      0.51846870
      0.62157412      0.50398743      0.62822057
      0.50030200      0.62499216      0.33171580
      0.62499998      0.49999998      0.40242153
      0.62333538      0.74838046      0.51808057
      0.62150284      0.74672207      0.62857414
      0.50001504      0.87510457      0.33162362
      0.62499998      0.74999997      0.40242153
      0.62535187      1.00025541      0.51654502
      0.62516619      0.00004128      0.63216000
      0.74972501      0.12496052      0.33168114
      0.87499997      0.00000000      0.40242153
      0.87515706      0.24986832      0.51685634
      0.87502600      0.24996612      0.63249485
      0.74981202      0.37491682      0.33169885
      0.87499997      0.24999999      0.40242153
      0.87507574      0.49962984      0.51667801
      0.87482850      0.49984937      0.63189231
      0.74982730      0.62499036      0.33163206
      0.87499997      0.49999998      0.40242153
      0.87509475      0.75069292      0.51650228
      0.87486944      0.75076191      0.63223113
      0.74963568      0.87507180      0.33170603
      0.87499997      0.74999997      0.40242153
      0.87515320      1.00031627      0.51696426
      0.87500184      0.00041050      0.63235517
