
1.0
     11.72461960      0.00000000      0.00000000
      0.00000000     11.72461960      0.00000000
      0.00000000      0.00000000     30.00000000
    Cu    Au
    32    64
Direct
      0.25000000      0.12500000      0.45952946
      0.25000000      0.12500000      0.57513731
      0.25000000      0.37500000      0.45952946
      0.25000000      0.37500000      0.57513731
      0.25000000      0.62500000      0.45952946
      0.25000000      0.62500000      0.57513731
      0.25000000      0.87500000      0.45952946
      0.25000000      0.87500000      0.57513731
      0.50000000      0.12500000      0.45952946
      0.50000000      0.12500000      0.57513731
      0.50000000      0.37500000      0.45952946
      0.50000000      0.37500000      0.57513732
      0.50000000      0.62500000      0.45952946
      0.50000000      0.62500000      0.57513731
      0.50000000      0.87500000      0.45952946
      0.50000000      0.87500000      0.57513731
      0.75000000      0.12500000      0.45952946
      0.75000000      0.12500000      0.57513731
      0.75000000      0.37500000      0.45952946
      0.75000000      0.37500000      0.57513732
      0.75000000      0.62500000      0.45952946
      0.75000000      0.62500000      0.57513731
      0.75000000      0.87500000      0.45952946
      0.75000000      0.87500000      0.57513731
      1.00000000      0.12500000      0.45952946
      0.00000000      0.12500000      0.57513731
      1.00000000      0.37500000      0.45952946
      0.00000000      0.37500000      0.57513731
      1.00000000      0.62500000      0.45952946
      0.00000000      0.62500000      0.57513731
      1.00000000      0.87500000      0.45952946
      0.00000000      0.87500000      0.57513731
      1.00000000      0.12500000      0.33333334
      0.12500000      0.00000000      0.40242153
      0.12500000      0.25000000      0.51685919
      0.12500000      0.25000000      0.63217626
      1.00000000      0.37500000      0.33333334
      0.12500000      0.25000000      0.40242153
      0.12500000      0.50000000      0.51685919
      0.12500000      0.50000000      0.63217627
      0.00000000      0.62500000      0.33333334
      0.12500000      0.50000000      0.40242153
      0.12500000      0.75000000      0.51685919
      0.12500000      0.75000000      0.63217627
      1.00000000      0.87500000      0.33333334
      0.12500000      0.75000000      0.40242153
      0.12500000      1.00000000      0.51685919
      0.12500000     -0.00000000      0.63217627
      0.25000000      0.12500000      0.33333334
      0.37500000      0.00000000      0.40242153
      0.37500000      0.25000000      0.51685919
      0.37500000      0.25000000      0.63217626
      0.25000000      0.37500000      0.33333334
      0.37500000      0.25000000      0.40242153
      0.37500000      0.50000000      0.51685919
      0.37500000      0.50000000      0.63217626
      0.25000000      0.62500000      0.33333334
      0.37500000      0.50000000      0.40242153
      0.37500000      0.75000000      0.51685919
      0.37500000      0.75000000      0.63217627
      0.25000000      0.87500000      0.33333334
      0.37500000      0.75000000      0.40242153
      0.37500000      1.00000000      0.51685919
      0.37500000     -0.00000000      0.63217627
      0.50000000      0.12500000      0.33333334
      0.62500000      0.00000000      0.40242153
      0.62500000      0.25000000      0.51685919
      0.62500000      0.25000000      0.63217627
      0.50000000      0.37500000      0.33333334
      0.62500000      0.25000000      0.40242153
      0.62500000      0.50000000      0.51685919
      0.62500000      0.50000000      0.63217627
      0.50000000      0.62500000      0.33333334
      0.62500000      0.50000000      0.40242153
      0.62500000      0.75000000      0.51685919
      0.62500000      0.75000000      0.63217627
      0.50000000      0.87500000      0.33333334
      0.62500000      0.75000000      0.40242153
      0.62500000      1.00000000      0.51685919
      0.62500000     -0.00000000      0.63217627
      0.75000000      0.12500000      0.33333334
      0.87500000      0.00000000      0.40242153
      0.87500000      0.25000000      0.51685919
      0.87500000      0.25000000      0.63217626
      0.75000000      0.37500000      0.33333334
      0.87500000      0.25000000      0.40242153
      0.87500000      0.50000000      0.51685919
      0.87500000      0.50000000      0.63217627
      0.75000000      0.62500000      0.33333334
      0.87500000      0.50000000      0.40242153
      0.87500000      0.75000000      0.51685919
      0.87500000      0.75000000      0.63217627
      0.75000000      0.87500000      0.33333334
      0.87500000      0.75000000      0.40242153
      0.87500000      1.00000000      0.51685919
      0.87500000     -0.00000000      0.63217627
