1.0
     11.72461960      0.00000000      0.00000000
      0.00000000     11.72461960      0.00000000
      0.00000000      0.00000000     40.00000000
    Cu    Au
    48    80
Direct
      0.31715810      0.73943649      0.57727375
      0.65353350      0.27211041      0.56115154
      0.61237244      0.23833625      0.49208273
      0.49510960      0.36162623      0.44459721
      0.61748852      0.24475254      0.39551937
      0.50596216      0.37207570      0.34909656
      0.61922802     -0.02769151      0.56759492
      0.60121056      0.00140563      0.48974009
      0.50123352      0.12681826      0.34477825
      0.61493215      0.48320978      0.39783888
      0.26066830      0.86368446      0.53007851
      0.25583826      0.88385314      0.43278495
      0.33321911      0.50024379      0.56917947
      0.25583192      0.64317859      0.43242982
      0.25024311      0.62134868      0.34933383
      0.24156067      0.39583101      0.52006785
      0.37552992      0.23955624      0.49323544
      0.24821648      0.88289220      0.34506390
      0.60553809      0.51718517      0.48125533
      0.66080953      0.52504913      0.56148610
      0.50058722      0.88290010      0.34624183
      0.61800432      0.76998211      0.39253248
      0.59398096      0.74987098      0.48580821
      0.49348264      0.86617935      0.52855139
      0.74599320      0.13199857      0.34926134
      0.88130269      0.71046780      0.56742556
      0.72322675      0.11974454      0.44465881
      0.73976380      0.86808893      0.51726599
      0.89826388      0.75496771      0.47328708
      0.85668290      0.24222228      0.40018608
      0.88915213      0.50461409      0.56089984
      0.88157063      0.51668742      0.47042825
      0.73113544      0.63974571      0.44308124
      0.11058649      0.48879426      0.56518323
      0.14983098     -0.00064771      0.38815955
      0.11505524      0.27127522      0.55929842
      0.14713019      0.49355749      0.39537754
      0.14513307      0.51742349      0.47434716
      0.00053756      0.62155393      0.51758754
      0.00185633      0.87734294      0.35128216
      0.14488966      0.76162031      0.38692706
      0.13346943      0.74954077      0.47775801
      0.09305669      0.69957856      0.57392064
      0.25627350      0.11843799      0.34560124
      0.37185575      0.00455692      0.38762418
      0.26573478      0.10596355      0.43866846
      0.37444588      0.00440850      0.48953195
      0.25042594      0.08445365      0.53942149
      0.50000000      0.87500000      0.24999998
      0.50000000      0.12500000      0.24999998
      0.12500000      0.00000000      0.30181613
      0.25000000      0.87500000      0.24999998
      0.62500000      0.75000000      0.30181613
      0.00000000      0.12500000      0.24999998
      0.75000000      0.12500000      0.24999998
      0.87500000      0.00000000      0.30181613
      0.75000000      0.37500000      0.24999998
      0.87500000      0.25000000      0.30181613
      0.75000000      0.62500000      0.24999998
      0.72260095      0.87534644      0.44630386
      0.85838256      0.75582120      0.39859322
      0.87500000      0.50000000      0.30181613
      0.74782721      0.87952195      0.34949008
      0.75000000      0.87500000      0.24999998
      0.76705456      0.64086174      0.51340898
     -0.00696360      0.11882976      0.35217830
      0.37500000      0.00000000      0.30181613
      0.25000000      0.62500000      0.24999998
      0.25000000      0.37500000      0.24999998
      0.25000000      0.12500000      0.24999998
      0.12500000      0.75000000      0.30181613
      0.87500000      0.75000000      0.30181613
      0.00000000      0.87500000      0.24999998
      0.62500000      0.25000000      0.30181613
      0.50000000      0.62500000      0.24999998
      0.37500000      0.25000000      0.30181613
      0.62500000      0.00000000      0.30181613
      0.12500000      0.50000000      0.30181613
      0.37500000      0.75000000      0.30181613
      0.00000000      0.62500000      0.24999998
      0.50000000      0.37500000      0.24999998
      0.12500000      0.25000000      0.30181613
      0.37500000      0.50000000      0.30181613
      0.00000000      0.37500000      0.24999998
      0.62500000      0.50000000      0.30181613
      0.02743802      0.63022861      0.43176186
      0.22791980      0.63025817      0.52666163
      0.37696655      0.51446909      0.47995085
      0.37797911      0.48670381      0.39811920
      0.33265245      0.27312744      0.56783076
      0.26121768      0.34583364      0.44506265
      0.39053211      0.23558503      0.39085209
      0.25315614      0.37891182      0.34871064
      0.38861071     -0.04425302      0.57936356
      0.00846636      0.84045149      0.52764024
      0.02847662      0.87742717      0.43068853
      0.36965927      0.76882235      0.38775853
      1.00695384      0.62570925      0.35433173
      0.00935184      0.39799335      0.51297794
      0.14631956      0.21124638      0.49308372
      0.01518235      0.36751389      0.43813975
      0.14784388      0.23414219      0.39235161
      0.99278755      0.37440042      0.35571272
      0.14828843     -0.08186764      0.58281726
      0.01224320      0.07942826      0.54435860
      0.15174906     -0.02263756      0.48490338
      0.02303095      0.11663340      0.43701931
      0.65939466      0.75444785      0.57006707
      0.74353590      0.62100066      0.35256281
      0.88702817      0.27526054      0.56494361
      0.75494848      0.39674349      0.51609199
      0.87738470      0.22627593      0.48127766
      0.71868785      0.35855392      0.44470784
      0.74113397      0.36393894      0.35361380
      0.84217799     -0.07049350      0.57436912
      0.75207908      0.10292398      0.53077440
      0.89133645     -0.01310597      0.48260545
      0.85250602      0.01243877      0.39896928
      0.85139230      0.49726995      0.40291209
      0.48445806      0.89481163      0.43872830
      0.48024095      0.63933927      0.53814800
      0.50884899      0.64059416      0.43404102
      0.50233091      0.61824725      0.35213754
      0.50005591      0.39419866      0.53096808
      0.49283956      0.12294484      0.53790185
      0.49355184      0.13451251      0.44596797
      0.60894052      0.01681152      0.39139656
      0.36180708      0.76225667      0.48190283
