
1.0
     11.72462000      0.00000000      0.00000000
      0.00000000     11.72462000      0.00000000
      0.00000000      0.00000000     40.00000000
    Cu    Au
    47    80
Direct
      0.34957593      0.73696200      0.57048371
      0.64631237      0.27843492      0.56375775
      0.61759082      0.23401796      0.48920756
      0.49564604      0.36076102      0.44479228
      0.61765279      0.24537620      0.39517800
      0.50599554      0.37295159      0.34901906
      0.61652896     -0.02905979      0.56919479
      0.60776389     -0.00150503      0.48777928
      0.50029687      0.12701850      0.34467815
      0.61497466      0.48456683      0.39813426
      0.24214833      0.86002330      0.53181223
      0.25487711      0.88261952      0.43419664
      0.36622183      0.50093637      0.56693313
      0.25386590      0.64410450      0.43434343
      0.24893651      0.62232377      0.34918856
      0.25035441      0.39022783      0.52247931
      0.36817248      0.22837629      0.49082656
      0.24532361      0.88271426      0.34561032
      0.60585181      0.51450457      0.47938411
      0.64888472      0.51198439      0.56368654
      0.49895818      0.88149589      0.34637715
      0.61691273      0.76586586      0.39145992
      0.59925618      0.75770491      0.48385387
      0.49863159      0.86604755      0.52889752
      0.74700423      0.13259684      0.34906334
      0.88446183      0.72201191      0.56573289
      0.72835916      0.12589799      0.44244951
      0.73983362      0.86785274      0.51937009
      0.88765525      0.75700677      0.47385352
      0.86084441      0.24293620      0.39912431
      0.86808936      0.51367265      0.56120955
      0.88467493      0.51022541      0.47357581
      0.73383948      0.63657131      0.44248789
      0.14801506     -0.00208840      0.38954534
      0.12318463      0.25559166      0.56071302
      0.14505271      0.49902129      0.39583489
      0.14214654      0.51204004      0.47717219
     -0.00453852      0.63209434      0.51819180
      0.00459894      0.87743165      0.35082283
      0.14067158      0.76107836      0.38873636
      0.13499325      0.75031974      0.48088420
      0.10819591      0.74586623      0.57075229
      0.25568286      0.11737008      0.34588643
      0.37072473      0.00393388      0.38789395
      0.26613509      0.10749912      0.43871168
      0.37723771     -0.00078498      0.48926670
      0.25694418      0.09872287      0.53537090
      0.49999998      0.87499997      0.24999998
      0.49999998      0.12500000      0.24999998
      0.12500000      0.00000000      0.30181613
      0.24999999      0.87499997      0.24999998
      0.62499998      0.74999997      0.30181613
      0.00000000      0.12500000      0.24999998
      0.74999997      0.12500000      0.24999998
      0.87499997      0.00000000      0.30181613
      0.74999997      0.37499999      0.24999998
      0.87499997      0.24999999      0.30181613
      0.74999997      0.62499998      0.24999998
      0.72179987      0.87241520      0.44202804
      0.86701884      0.75484235      0.39749117
      0.87499997      0.49999998      0.30181613
      0.74825662      0.87793495      0.34938698
      0.74999997      0.87499997      0.24999998
      0.75987061      0.63877722      0.51416241
     -0.00443636      0.11917460      0.35175140
      0.37499999      0.00000000      0.30181613
      0.24999999      0.62499998      0.24999998
      0.24999999      0.37499999      0.24999998
      0.24999999      0.12500000      0.24999998
      0.12500000      0.74999997      0.30181613
      0.87499997      0.74999997      0.30181613
      0.00000000      0.87499997      0.24999998
      0.62499998      0.24999999      0.30181613
      0.49999998      0.62499998      0.24999998
      0.37499999      0.24999999      0.30181613
      0.62499998      0.00000000      0.30181613
      0.12500000      0.49999998      0.30181613
      0.37499999      0.74999997      0.30181613
      0.00000000      0.62499998      0.24999998
      0.49999998      0.37499999      0.24999998
      0.12500000      0.24999999      0.30181613
      0.37499999      0.49999998      0.30181613
      0.00000000      0.37499999      0.24999998
      0.62499998      0.49999998      0.30181613
      0.02609783      0.63057234      0.43549924
      0.21823902      0.61505811      0.53139801
      0.37215524      0.51834518      0.48019067
      0.37744893      0.49013565      0.39800674
      0.34243065      0.27213211      0.57067517
      0.26230449      0.35002689      0.44413647
      0.39049752      0.23697560      0.39072161
      0.25212929      0.37978950      0.34915814
      0.38023492     -0.03973448      0.57666626
     -0.00186532      0.85576290      0.52494531
      0.02719980      0.87781619      0.43368072
      0.36565992      0.76707870      0.38803731
      1.00897893      0.62512277      0.35387051
      0.02087950      0.41247074      0.52333383
      0.13709743      0.22597820      0.49170268
      0.01627566      0.36953931      0.43837506
      0.14776318      0.23297746      0.39286691
      0.99475278      0.37438457      0.35548101
      0.13550253     -0.02853186      0.57924301
     -0.00865093      0.09707908      0.53753017
      0.15316687     -0.01330425      0.48506582
      0.01847519      0.11797509      0.43736377
      0.66057149      0.75176273      0.57218081
      0.74363749      0.62054983      0.35276375
      0.88034851      0.28492291      0.56774836
      0.74976800      0.39459542      0.51655697
      0.88220315      0.23596929      0.48328403
      0.72353086      0.36009505      0.44371612
      0.74186312      0.36524643      0.35377244
      0.84090446     -0.06172011      0.57564354
      0.74383485      0.10887562      0.53232612
      0.87190296     -0.00560490      0.48060456
      0.85594167      0.01127159      0.39776160
      0.85673367      0.49949051      0.40272419
      0.48235976      0.89177902      0.43820898
      0.49941680      0.63560739      0.53217242
      0.50790552      0.64211447      0.43447527
      0.50141361      0.61898209      0.35180668
      0.49790134      0.38202593      0.52591791
      0.49660365      0.12155430      0.53583889
      0.49525020      0.13103205      0.44460917
      0.60922776      0.01600411      0.39055233
      0.35960441      0.76408705      0.48464387
