
1.0
     11.72461960      0.00000000      0.00000000
      0.00000000     11.72461960      0.00000000
      0.00000000      0.00000000     40.00000000
    Cu    Au
    47    80
Direct
      0.25037780      0.12500000      0.34490741
      0.24985724      0.12500000      0.43063342
      0.24977133      0.12500000      0.51763384
      0.24999163      0.37515703      0.34472361
      0.25149439      0.37711314      0.43112811
      0.24933322      0.37310886      0.51752653
      0.24983267      0.62500000      0.34462033
      0.25319163      0.62500000      0.43150555
      0.24485867      0.62500000      0.51740553
      0.24999163      0.87484297      0.34472361
      0.25149439      0.87288686      0.43112811
      0.24933322      0.87689114      0.51752653
      0.50000000      0.12500000      0.34489620
      0.50000000      0.12500000      0.43073566
      0.50000000      0.12500000      0.51762790
      0.50000000      0.37464415      0.34462963
      0.50000000      0.37792658      0.43136638
      0.50000000      0.36930139      0.51743070
      0.50000000      0.62500000      0.34444637
      0.50000000      0.62500000      0.43158050
      0.50000000      0.87535585      0.34462963
      0.50000000      0.87207342      0.43136638
      0.50000000      0.88069861      0.51743070
      0.74962220      0.12500000      0.34490741
      0.75014276      0.12500000      0.43063342
      0.75022867      0.12500000      0.51763384
      0.75000837      0.37515703      0.34472361
      0.74850561      0.37711314      0.43112811
      0.75066678      0.37310886      0.51752653
      0.75016733      0.62500000      0.34462033
      0.74680837      0.62500000      0.43150555
      0.75514133      0.62500000      0.51740553
      0.75000837      0.87484297      0.34472361
      0.74850561      0.87288686      0.43112811
      0.75066678      0.87689114      0.51752653
      1.00000000      0.12500000      0.34491568
      1.00000000      0.12500000      0.43046193
      1.00000000      0.12500000      0.51748478
      1.00000000      0.37588662      0.34490057
      1.00000000      0.37525933      0.43073244
      1.00000000      0.37377163      0.51761402
      1.00000000      0.62500000      0.34485719
      1.00000000      0.62500000      0.43094829
      1.00000000      0.62500000      0.51763442
      1.00000000      0.87411338      0.34490057
      1.00000000      0.87474068      0.43073244
      1.00000000      0.87622837      0.51761402
      0.00000000      0.12500000      0.25000015
      0.12500000      0.00000000      0.30181600
      0.12542792      0.25066256      0.38791382
      0.12491595      0.24978429      0.47361778
      0.12476089      0.24954210      0.56061985
      0.00000000      0.37500000      0.25000015
      0.12500000      0.25000000      0.30181600
      0.12565823      0.50061574      0.38813767
      0.12500644      0.49955821      0.47375612
      0.12505685      0.49931848      0.56030831
      0.00000000      0.62500000      0.25000015
      0.12500000      0.50000000      0.30181600
      0.12565823      0.74938426      0.38813767
      0.12500644      0.75044180      0.47375612
      0.12505685      0.75068152      0.56030831
      0.00000000      0.87500000      0.25000015
      0.12500000      0.75000000      0.30181600
      0.12542792     -0.00066256      0.38791382
      0.12491595      0.00021571      0.47361778
      0.12476089      0.00045790      0.56061985
      0.25000000      0.12500000      0.25000015
      0.37500000      0.00000000      0.30181600
      0.37531256      0.25072205      0.38810612
      0.37467905      0.24988024      0.47354919
      0.37464485      0.24983217      0.56059327
      0.25000000      0.37500000      0.25000015
      0.37500000      0.25000000      0.30181600
      0.37545550      0.50047265      0.38766329
      0.37730460      0.50211912      0.47571945
      0.37840988      0.50329388      0.55743716
      0.25000000      0.62500000      0.25000015
      0.37500000      0.50000000      0.30181600
      0.37545550      0.74952735      0.38766329
      0.37730460      0.74788088      0.47571945
      0.37840988      0.74670612      0.55743716
      0.25000000      0.87500000      0.25000015
      0.37500000      0.75000000      0.30181600
      0.37531256     -0.00072205      0.38810612
      0.37467905      0.00011976      0.47354919
      0.37464485      0.00016784      0.56059327
      0.50000000      0.12500000      0.25000015
      0.62500000      0.00000000      0.30181600
      0.62468744      0.25072205      0.38810612
      0.62532095      0.24988024      0.47354919
      0.62535515      0.24983217      0.56059328
      0.50000000      0.37500000      0.25000015
      0.62500000      0.25000000      0.30181600
      0.62454450      0.50047265      0.38766329
      0.62269540      0.50211912      0.47571945
      0.62159013      0.50329388      0.55743716
      0.50000000      0.62500000      0.25000015
      0.62500000      0.50000000      0.30181600
      0.62454450      0.74952735      0.38766329
      0.62269540      0.74788088      0.47571945
      0.62159012      0.74670612      0.55743716
      0.50000000      0.87500000      0.25000015
      0.62500000      0.75000000      0.30181600
      0.62468744     -0.00072205      0.38810612
      0.62532095      0.00011976      0.47354919
      0.62535515      0.00016784      0.56059327
      0.75000000      0.12500000      0.25000015
      0.87500000      0.00000000      0.30181600
      0.87457208      0.25066256      0.38791382
      0.87508405      0.24978429      0.47361778
      0.87523911      0.24954210      0.56061985
      0.75000000      0.37500000      0.25000015
      0.87500000      0.25000000      0.30181600
      0.87434177      0.50061574      0.38813767
      0.87499356      0.49955820      0.47375612
      0.87494315      0.49931848      0.56030831
      0.75000000      0.62500000      0.25000015
      0.87500000      0.50000000      0.30181600
      0.87434177      0.74938426      0.38813767
      0.87499356      0.75044180      0.47375612
      0.87494315      0.75068152      0.56030831
      0.75000000      0.87500000      0.25000015
      0.87500000      0.75000000      0.30181600
      0.87457208     -0.00066256      0.38791382
      0.87508405      0.00021571      0.47361778
      0.87523911      0.00045790      0.56061985
