
1.0
     11.72461960      0.00000000      0.00000000
      0.00000000     11.72461960      0.00000000
      0.00000000      0.00000000     40.00000000
    Cu    Au
    48    80
Direct
      0.25000004      0.12500000      0.34470768
      0.25000011      0.12500000      0.43092018
      0.25000015      0.12500000      0.51778432
      0.25000004      0.37500000      0.34470768
      0.25000011      0.37500000      0.43092018
      0.25000015      0.37500000      0.51778432
      0.25000004      0.62500000      0.34470768
      0.25000011      0.62500000      0.43092018
      0.25000015      0.62500000      0.51778432
      0.25000004      0.87500000      0.34470768
      0.25000011      0.87500000      0.43092018
      0.25000015      0.87500000      0.51778432
      0.50000004      0.12500000      0.34470768
      0.50000011      0.12500000      0.43092018
      0.50000015      0.12500000      0.51778432
      0.50000004      0.37500000      0.34470768
      0.50000011      0.37500000      0.43092018
      0.50000015      0.37500000      0.51778432
      0.50000004      0.62500000      0.34470768
      0.50000011      0.62500000      0.43092018
      0.50000015      0.62500000      0.51778432
      0.50000004      0.87500000      0.34470768
      0.50000011      0.87500000      0.43092018
      0.50000015      0.87500000      0.51778432
      0.75000004      0.12500000      0.34470768
      0.75000011      0.12500000      0.43092018
      0.75000015      0.12500000      0.51778432
      0.75000004      0.37500000      0.34470768
      0.75000011      0.37500000      0.43092018
      0.75000015      0.37500000      0.51778432
      0.75000004      0.62500000      0.34470768
      0.75000011      0.62500000      0.43092018
      0.75000015      0.62500000      0.51778432
      0.75000004      0.87500000      0.34470768
      0.75000011      0.87500000      0.43092018
      0.75000015      0.87500000      0.51778432
      1.00000004      0.12500000      0.34470768
      1.00000011      0.12500000      0.43092018
      1.00000015      0.12500000      0.51778432
      1.00000004      0.37500000      0.34470768
      1.00000011      0.37500000      0.43092018
      1.00000015      0.37500000      0.51778432
      1.00000004      0.62500000      0.34470768
      1.00000011      0.62500000      0.43092018
      1.00000015      0.62500000      0.51778432
      1.00000004      0.87500000      0.34470768
      1.00000011      0.87500000      0.43092018
      1.00000015      0.87500000      0.51778432
      0.00000000      0.12500000      0.25000015
      0.12500000      0.00000000      0.30181600
      0.12500011      0.25000000      0.38786774
      0.12500017      0.25000000      0.47401650
      0.12500021      0.25000000      0.56048803
      0.00000000      0.37500000      0.25000015
      0.12500000      0.25000000      0.30181600
      0.12500011      0.50000000      0.38786774
      0.12500017      0.50000000      0.47401650
      0.12500021      0.50000000      0.56048803
      0.00000000      0.62500000      0.25000015
      0.12500000      0.50000000      0.30181600
      0.12500011      0.75000000      0.38786774
      0.12500017      0.75000000      0.47401650
      0.12500021      0.75000000      0.56048803
      0.00000000      0.87500000      0.25000015
      0.12500000      0.75000000      0.30181600
      0.12500011      1.00000000      0.38786774
      0.12500017      0.00000000      0.47401650
      0.12500021      0.00000000      0.56048803
      0.25000000      0.12500000      0.25000015
      0.37500000      0.00000000      0.30181600
      0.37500011      0.25000000      0.38786774
      0.37500017      0.25000000      0.47401650
      0.37500021      0.25000000      0.56048803
      0.25000000      0.37500000      0.25000015
      0.37500000      0.25000000      0.30181600
      0.37500011      0.50000000      0.38786774
      0.37500017      0.50000000      0.47401650
      0.37500021      0.50000000      0.56048803
      0.25000000      0.62500000      0.25000015
      0.37500000      0.50000000      0.30181600
      0.37500011      0.75000000      0.38786774
      0.37500017      0.75000000      0.47401650
      0.37500021      0.75000000      0.56048803
      0.25000000      0.87500000      0.25000015
      0.37500000      0.75000000      0.30181600
      0.37500011      1.00000000      0.38786774
      0.37500017      0.00000000      0.47401650
      0.37500021      0.00000000      0.56048803
      0.50000000      0.12500000      0.25000015
      0.62500000      0.00000000      0.30181600
      0.62500011      0.25000000      0.38786774
      0.62500017      0.25000000      0.47401650
      0.62500021      0.25000000      0.56048803
      0.50000000      0.37500000      0.25000015
      0.62500000      0.25000000      0.30181600
      0.62500011      0.50000000      0.38786774
      0.62500017      0.50000000      0.47401650
      0.62500021      0.50000000      0.56048803
      0.50000000      0.62500000      0.25000015
      0.62500000      0.50000000      0.30181600
      0.62500011      0.75000000      0.38786774
      0.62500017      0.75000000      0.47401650
      0.62500021      0.75000000      0.56048803
      0.50000000      0.87500000      0.25000015
      0.62500000      0.75000000      0.30181600
      0.62500011      1.00000000      0.38786774
      0.62500017      0.00000000      0.47401650
      0.62500021      0.00000000      0.56048803
      0.75000000      0.12500000      0.25000015
      0.87500000      0.00000000      0.30181600
      0.87500011      0.25000000      0.38786774
      0.87500017      0.25000000      0.47401650
      0.87500021      0.25000000      0.56048803
      0.75000000      0.37500000      0.25000015
      0.87500000      0.25000000      0.30181600
      0.87500011      0.50000000      0.38786774
      0.87500017      0.50000000      0.47401650
      0.87500021      0.50000000      0.56048803
      0.75000000      0.62500000      0.25000015
      0.87500000      0.50000000      0.30181600
      0.87500011      0.75000000      0.38786774
      0.87500017      0.75000000      0.47401650
      0.87500021      0.75000000      0.56048803
      0.75000000      0.87500000      0.25000015
      0.87500000      0.75000000      0.30181600
      0.87500011      1.00000000      0.38786774
      0.87500017      0.00000000      0.47401650
      0.87500021      0.00000000      0.56048803
