1.0
     11.72462000      0.00000000      0.00000000
      0.00000000     11.72462000      0.00000000
      0.00000000      0.00000000     40.00000000
    Cu    Au
    47    80
Direct
      0.38902711      0.74468354      0.56880285
      0.62209519      0.25233630      0.48792539
      0.49902710      0.36625637      0.43887788
      0.61492481      0.23905847      0.39187455
      0.50541175      0.37290444      0.34860297
      0.61779060     -0.01212403      0.56264375
      0.62154277      0.01481812      0.48978067
      0.50027816      0.12338911      0.34487188
      0.61711635      0.48922650      0.39478847
      0.26708629      0.87226375      0.52774661
      0.25762876      0.88507419      0.43667345
      0.36007469      0.50660159      0.56583940
      0.25476866      0.63918763      0.43447891
      0.24947141      0.62742185      0.34934825
      0.24862529      0.39827253      0.52279096
      0.38368805      0.26189547      0.48890967
      0.24738828      0.88012286      0.34640121
      0.61982327      0.49455042      0.47947583
      0.68866622      0.55082546      0.56749043
      0.49871944      0.87965366      0.34700710
      0.62115834      0.76658073      0.39448906
      0.60417498      0.75433737      0.48199424
      0.49900182      0.87232431      0.52395843
      0.74690639      0.12938225      0.34883521
      0.84898810      0.72238048      0.56541271
      0.73239701      0.12282010      0.44139994
      0.73377582      0.86116728      0.51901571
      0.89332049      0.77175656      0.47725200
      0.86822036      0.23957851      0.39745356
      0.90469489      0.51697715      0.56239941
      0.86767508      0.49377659      0.47121290
      0.73884341      0.63955593      0.44209861
      0.12804266      0.47216626      0.56919734
      0.14971566     -0.00356303      0.39046159
      0.12885418      0.26243310      0.55822795
      0.14093444      0.50610475      0.39571184
      0.15725936      0.52146487      0.47855045
     -0.00321729      0.62682070      0.51258109
      0.00698337      0.87671477      0.35129879
      0.14226362      0.75960068      0.39071378
      0.14043179      0.75695792      0.48072747
      0.04829346      0.66674348      0.57374812
      0.25553417      0.11560641      0.34629248
      0.37196795      0.00200877      0.38915003
      0.26677509      0.10894150      0.43885965
      0.37302301      0.00936782      0.48774870
      0.25610111      0.09912977      0.53630614
      0.49999998      0.87499997      0.24999998
      0.49999998      0.12500000      0.24999998
      0.12500000      0.00000000      0.30181613
      0.24999999      0.87499997      0.24999998
      0.62499998      0.74999997      0.30181613
      0.00000000      0.12500000      0.24999998
      0.74999997      0.12500000      0.24999998
      0.87499997      0.00000000      0.30181613
      0.74999997      0.37499999      0.24999998
      0.87499997      0.24999999      0.30181613
      0.74999997      0.62499998      0.24999998
      0.73020476      0.88252345      0.44448571
      0.86858633      0.75639153      0.39839492
      0.87499997      0.49999998      0.30181613
      0.74712659      0.87651977      0.34964982
      0.74999997      0.87499997      0.24999998
      0.76478034      0.63392484      0.51090208
     -0.00128221      0.11793604      0.35120304
      0.37499999      0.00000000      0.30181613
      0.24999999      0.62499998      0.24999998
      0.24999999      0.37499999      0.24999998
      0.24999999      0.12500000      0.24999998
      0.12500000      0.74999997      0.30181613
      0.87499997      0.74999997      0.30181613
      0.00000000      0.87499997      0.24999998
      0.62499998      0.24999999      0.30181613
      0.49999998      0.62499998      0.24999998
      0.37499999      0.24999999      0.30181613
      0.62499998      0.00000000      0.30181613
      0.12500000      0.49999998      0.30181613
      0.37499999      0.74999997      0.30181613
      0.00000000      0.62499998      0.24999998
      0.49999998      0.37499999      0.24999998
      0.12500000      0.24999999      0.30181613
      0.37499999      0.49999998      0.30181613
      0.00000000      0.37499999      0.24999998
      0.62499998      0.49999998      0.30181613
      0.02134118      0.63069070      0.43956225
      0.22341933      0.63912739      0.53317954
      0.38732101      0.50265339      0.48273182
      0.37673410      0.49717132      0.39500709
      0.34206572      0.27779271      0.57024887
      0.26261482      0.36153451      0.44128920
      0.38835416      0.23525039      0.39023199
      0.24924307      0.37895932      0.34934935
      0.39026893     -0.02836401      0.57502198
      0.01598148      0.84300010      0.53257535
      0.02747279      0.88006630      0.43433209
      0.36879234      0.76864335      0.39083876
      1.00952131      0.62927244      0.35363198
      0.01471375      0.40270644      0.51497531
      0.15412477      0.22504138      0.48983516
      0.02042762      0.37116135      0.43894930
      0.14567796      0.23025995      0.39363969
      0.99725874      0.37526536      0.35503561
      0.19098675     -0.16815319      0.58638887
      0.01447557      0.08436157      0.54215325
      0.14595175     -0.01218076      0.48665998
      0.01356632      0.11949640      0.43923271
      0.63047646      0.77204030      0.57374779
      0.74578135      0.62252515      0.35263635
      0.91280821      0.28464179      0.57016958
      0.75740517      0.39104176      0.52583454
      0.87095398      0.24139044      0.48153854
      0.72341575      0.35554310      0.43761334
      0.74492824      0.36439059      0.35355746
      0.83574421     -0.05331676      0.57093529
      0.74671502      0.14343396      0.53580538
      0.87770217     -0.00122872      0.48757456
      0.86022945      0.00938597      0.39675633
      0.86373736      0.50256820      0.40161065
      0.48730472      0.89442300      0.44137118
      0.51595251      0.62332065      0.53054373
      0.51361958      0.63058595      0.43539921
      0.50349778      0.62734834      0.35130943
      0.52250456      0.38243265      0.53546016
      0.49304738      0.13602217      0.53220197
      0.49861902      0.13657032      0.44529528
      0.60918947      0.01218366      0.39145880
      0.36695815      0.74823006      0.48332822
