1.0
     11.72461960      0.00000000      0.00000000
      0.00000000     11.72461960      0.00000000
      0.00000000      0.00000000     40.00000000
    Cu    Au
    48    79
Direct
      0.25071564      0.12779743      0.34481157
      0.24711617      0.11722279      0.43097967
      0.25084508      0.13272526      0.51762842
      0.25037690      0.37183575      0.34473556
      0.24942432      0.38308712      0.43113333
      0.25265249      0.37138020      0.51782140
      0.25001760      0.62791740      0.34461826
      0.24995129      0.61854129      0.43125623
      0.24735064      0.63107016      0.51766064
      0.25022889      0.87205772      0.34463260
      0.24910138      0.88029610      0.43131915
      0.24969047      0.86868012      0.51760558
      0.49911345      0.12787264      0.34485852
      0.50020582      0.11691948      0.43081748
      0.49935797      0.13232424      0.51763547
      0.49922339      0.37158654      0.34471140
      0.50035431      0.38370280      0.43120928
      0.49974166      0.36352439      0.51628279
      0.49915234      0.62776089      0.34446169
      0.50046627      0.61891775      0.43115758
      0.49910434      0.87235287      0.34457518
      0.50049001      0.87874939      0.43123266
      0.49831731      0.87132281      0.51770207
      0.75011382      0.12797016      0.34491933
      0.74853868      0.11681015      0.43065401
      0.74972680      0.13291747      0.51756488
      0.75044599      0.37179764      0.34483011
      0.74548939      0.38283750      0.43089495
      0.75091081      0.36751173      0.51648156
      0.75076387      0.62771574      0.34468667
      0.74458600      0.61858826      0.43111936
      0.75622505      0.62860468      0.51622807
      0.75048113      0.87199968      0.34469378
      0.74547653      0.87953667      0.43103022
      0.74855769      0.86617453      0.51787691
      0.99926445      0.12793266      0.34489775
      1.00136835      0.11729860      0.43079259
      0.99573608      0.13275003      0.51743976
      0.99920988      0.37220792      0.34494543
      1.00210001      0.38081703      0.43062828
      0.99513648      0.36942265      0.51755693
      0.99922574      0.62789596      0.34489916
      1.00163124      0.61817238      0.43073929
      0.99512523      0.62929151      0.51760498
      0.99935433      0.87159347      0.34481174
      1.00119649      0.88224440      0.43088321
      0.99547787      0.86692738      0.51763601
      0.62299968      0.50048605      0.54918792
      0.00000000      0.12500000      0.25000015
      0.12500000      0.00000000      0.30181600
      0.12529040      0.24989094      0.38911521
      0.12447276      0.25044841      0.47272071
      0.12415617      0.25126093      0.56096009
      0.00000000      0.37500000      0.25000015
      0.12500000      0.25000000      0.30181600
      0.12528292      0.50013685      0.38624084
      0.12456848      0.49962422      0.47608506
      0.12315331      0.49979720      0.55810354
      0.00000000      0.62500000      0.25000015
      0.12500000      0.50000000      0.30181600
      0.12506843      0.74977940      0.38923873
      0.12391784      0.74977142      0.47256803
      0.12202719      0.74952291      0.56129528
      0.00000000      0.87500000      0.25000015
      0.12500000      0.75000000      0.30181600
      0.12503065     -0.00068066      0.38614427
      0.12358642     -0.00003152      0.47641763
      0.12274980      0.00052800      0.55798815
      0.25000000      0.12500000      0.25000015
      0.37500000      0.00000000      0.30181600
      0.37458548      0.24995764      0.38990195
      0.37354998      0.24949383      0.47132686
      0.37564109      0.25296585      0.56174106
      0.25000000      0.37500000      0.25000015
      0.37500000      0.25000000      0.30181600
      0.37481280      0.50019388      0.38652624
      0.37642768      0.50289229      0.47643931
      0.39194452      0.50839187      0.55473705
      0.25000000      0.62500000      0.25000015
      0.37500000      0.50000000      0.30181600
      0.37447665      0.74973463      0.38931491
      0.37586192      0.74819250      0.47317241
      0.37520504      0.74860842      0.56021110
      0.25000000      0.87500000      0.25000015
      0.37500000      0.75000000      0.30181600
      0.37459351     -0.00081607      0.38693560
      0.37409399     -0.00029735      0.47541978
      0.37386347      0.00131855      0.55895638
      0.50000000      0.12500000      0.25000015
      0.62500000      0.00000000      0.30181600
      0.62404880      0.24994358      0.38929002
      0.62457266      0.24859287      0.47155385
      0.62502671      0.25772453      0.56114872
      0.50000000      0.37500000      0.25000015
      0.62500000      0.25000000      0.30181600
      0.62396122      0.50012347      0.38593404
      0.62143178      0.50248225      0.47757362
      0.50000000      0.62500000      0.25000015
      0.62500000      0.50000000      0.30181600
      0.62401178      0.74952024      0.38857060
      0.62138088      0.74757113      0.47390360
      0.61537392      0.73044646      0.55675095
      0.50000000      0.87500000      0.25000015
      0.62500000      0.75000000      0.30181600
      0.62413459     -0.00077515      0.38622709
      0.62439773     -0.00087475      0.47602885
      0.62424657      0.00021352      0.55816843
      0.75000000      0.12500000      0.25000015
      0.87500000      0.00000000      0.30181600
      0.87442244      0.24990320      0.38983676
      0.87452797      0.24921433      0.47108285
      0.87320072      0.25025342      0.56232072
      0.75000000      0.37500000      0.25000015
      0.87500000      0.25000000      0.30181600
      0.87406764      0.50008786      0.38706766
      0.87482221      0.49883415      0.47410951
      0.86578103      0.49817268      0.55901507
      0.75000000      0.62500000      0.25000015
      0.87500000      0.50000000      0.30181600
      0.87424948      0.74966404      0.38988069
      0.87420361      0.75016677      0.47108271
      0.87055724      0.74767924      0.56203763
      0.75000000      0.87500000      0.25000015
      0.87500000      0.75000000      0.30181600
      0.87432258     -0.00089402      0.38676512
      0.87334784     -0.00079792      0.47542926
      0.87273187     -0.00065313      0.55878276
