
1.0
     11.72461960      0.00000000      0.00000000
      0.00000000     11.72461960      0.00000000
      0.00000000      0.00000000     40.00000000
    Cu    Au
    49    79
Direct
      0.25005409      0.12676990      0.34465868
      0.24970094      0.12142054      0.43095828
      0.25021449      0.12851514      0.51784872
      0.25003869      0.37318728      0.34469502
      0.24962327      0.37813995      0.43086244
      0.25081190      0.37264183      0.51791020
      0.25003869      0.62681271      0.34469502
      0.24962327      0.62186005      0.43086244
      0.25081190      0.62735817      0.51791020
      0.25005409      0.87323010      0.34465868
      0.24970094      0.87857946      0.43095828
      0.25021449      0.87148486      0.51784872
      0.49992411      0.12675959      0.34469966
      0.49984741      0.12132674      0.43087326
      0.50086190      0.12920155      0.51790306
      0.49993985      0.37320463      0.34471787
      0.50016581      0.37845807      0.43087863
      0.50054627      0.37234814      0.51730482
      0.49993985      0.62679537      0.34471787
      0.50016581      0.62154193      0.43087863
      0.50054627      0.62765186      0.51730482
      0.49992411      0.87324041      0.34469966
      0.49984741      0.87867326      0.43087326
      0.50086190      0.87079845      0.51790306
      0.75007589      0.12675959      0.34469966
      0.75015259      0.12132674      0.43087326
      0.74913810      0.12920155      0.51790306
      0.75006015      0.37320463      0.34471787
      0.74983419      0.37845807      0.43087863
      0.74945373      0.37234814      0.51730482
      0.75006015      0.62679537      0.34471787
      0.74983419      0.62154193      0.43087863
      0.74945373      0.62765186      0.51730482
      0.75007589      0.87324041      0.34469966
      0.75015259      0.87867326      0.43087326
      0.74913810      0.87079845      0.51790306
      0.99994591      0.12676990      0.34465868
      1.00029906      0.12142054      0.43095828
      0.99978551      0.12851514      0.51784872
      0.99996131      0.37318728      0.34469502
      1.00037673      0.37813995      0.43086244
      0.99918810      0.37264183      0.51791020
      0.99996131      0.62681271      0.34469502
      1.00037673      0.62186005      0.43086244
      0.99918810      0.62735817      0.51791020
      0.99994591      0.87323010      0.34465868
      1.00029906      0.87857946      0.43095828
      0.99978551      0.87148486      0.51784872
      0.62500000      0.50000000      0.55311685
      0.00000000      0.12500000      0.25000015
      0.12500000      0.00000000      0.30181600
      0.12500000      0.24987252      0.38858639
      0.12500000      0.25016908      0.47329198
      0.12500000      0.25058866      0.56109381
      0.00000000      0.37500000      0.25000015
      0.12500000      0.25000000      0.30181600
      0.12500000      0.50000000      0.38701149
      0.12500000      0.50000000      0.47503997
      0.12500000      0.50000000      0.55961744
      0.00000000      0.62500000      0.25000015
      0.12500000      0.50000000      0.30181600
      0.12500000      0.75012748      0.38858639
      0.12500000      0.74983092      0.47329198
      0.12500000      0.74941134      0.56109381
      0.00000000      0.87500000      0.25000015
      0.12500000      0.75000000      0.30181600
      0.12500000      0.00000000      0.38700830
      0.12500000      0.00000000      0.47505838
      0.12500000      0.00000000      0.55965569
      0.25000000      0.12500000      0.25000015
      0.37500000      0.00000000      0.30181600
      0.37491669      0.24990753      0.38867946
      0.37479474      0.24980207      0.47301885
      0.37574640      0.25078297      0.56114597
      0.25000000      0.37500000      0.25000015
      0.37500000      0.25000000      0.30181600
      0.37492550      0.50000000      0.38710298
      0.37440716      0.50000000      0.47455919
      0.38208105      0.50000000      0.55933184
      0.25000000      0.62500000      0.25000015
      0.37500000      0.50000000      0.30181600
      0.37491669      0.75009247      0.38867946
      0.37479474      0.75019793      0.47301885
      0.37574640      0.74921703      0.56114597
      0.25000000      0.87500000      0.25000015
      0.37500000      0.75000000      0.30181600
      0.37487389      0.00000000      0.38707783
      0.37519614      0.00000000      0.47508556
      0.37560462      0.00000000      0.55953604
      0.50000000      0.12500000      0.25000015
      0.62500000      0.00000000      0.30181600
      0.62500000      0.24991401      0.38862901
      0.62500000      0.24942845      0.47277546
      0.62500000      0.25728625      0.56083420
      0.50000000      0.37500000      0.25000015
      0.62500000      0.25000000      0.30181600
      0.62500000      0.50000000      0.38704566
      0.62500000      0.50000000      0.47515469
      0.50000000      0.62500000      0.25000015
      0.62500000      0.50000000      0.30181600
      0.62500000      0.75008599      0.38862901
      0.62500000      0.75057155      0.47277546
      0.62500000      0.74271375      0.56083420
      0.50000000      0.87500000      0.25000015
      0.62500000      0.75000000      0.30181600
      0.62500000      0.00000000      0.38701974
      0.62500000      0.00000000      0.47505417
      0.62500000      0.00000000      0.55954115
      0.75000000      0.12500000      0.25000015
      0.87500000      0.00000000      0.30181600
      0.87508331      0.24990753      0.38867946
      0.87520526      0.24980207      0.47301885
      0.87425360      0.25078297      0.56114597
      0.75000000      0.37500000      0.25000015
      0.87500000      0.25000000      0.30181600
      0.87507450      0.50000000      0.38710298
      0.87559284      0.50000000      0.47455919
      0.86791895      0.50000000      0.55933184
      0.75000000      0.62500000      0.25000015
      0.87500000      0.50000000      0.30181600
      0.87508331      0.75009247      0.38867946
      0.87520526      0.75019793      0.47301885
      0.87425360      0.74921703      0.56114597
      0.75000000      0.87500000      0.25000015
      0.87500000      0.75000000      0.30181600
      0.87512611      0.00000000      0.38707783
      0.87480386      0.00000000      0.47508556
      0.87439538      0.00000000      0.55953604
