1.0
     11.72462000      0.00000000      0.00000000
      0.00000000     10.15381800      0.00000000
      0.00000000      0.00000000     40.00000000
    H     Au
     1    96
Direct
      0.62500000      0.58313087      0.57089948
      0.12500000      0.08343567      0.42942940
      0.00013045      0.00018444      0.48946511
      0.00044605      0.16717898      0.55095601
      0.12500000      0.08333300      0.25000000
      0.00000000      0.00000000      0.30983183
     -0.00003340      0.16652461      0.36973727
     -0.00009260      0.33362434      0.42952193
      0.12500000      0.25028039      0.48938639
      0.12500000      0.41713916      0.55082288
      0.25000000      0.33333333      0.25000000
      0.12500000      0.25000000      0.30983183
      0.12500000      0.41647914      0.36977011
      0.12500000      0.58366462      0.42953519
     -0.00014849      0.50051964      0.48940232
      0.00116680      0.66768541      0.55089849
      0.12500000      0.58333300      0.25000000
      0.00000000      0.50000000      0.30983183
      0.00002984      0.66670990      0.36973276
     -0.00050760      0.83330262      0.42977714
      0.12500000      0.75057901      0.48933193
      0.12500000      0.91753125      0.55117181
      0.25000000      0.83333333      0.25000000
      0.12500000      0.75000000      0.30983183
      0.12500000      0.91608969      0.36993351
      0.37507178      0.08348509      0.42952428
      0.24986955      0.00018444      0.48946511
      0.24955395      0.16717898      0.55095601
      0.37500000      0.08333300      0.25000000
      0.25000000      0.00000000      0.30983183
      0.25003340      0.16652461      0.36973727
      0.25009260      0.33362434      0.42952193
      0.37517816      0.25008955      0.48946592
      0.37381693      0.41654742      0.55054259
      0.50000000      0.33333333      0.25000000
      0.37500000      0.25000000      0.30983183
      0.37501071      0.41660536      0.36971526
      0.37507722      0.58367788      0.42953180
      0.25014849      0.50051964      0.48940232
      0.24883320      0.66768541      0.55089849
      0.37500000      0.58333300      0.25000000
      0.25000000      0.50000000      0.30983183
      0.24997016      0.66670990      0.36973276
      0.25050760      0.83330262      0.42977714
      0.37613922      0.74925796      0.48989861
      0.37400898      0.91802729      0.55095871
      0.50000000      0.83333333      0.25000000
      0.37500000      0.75000000      0.30983183
      0.37476558      0.91639981      0.36966508
      0.62500000      0.08387412      0.42977368
      0.50002510     -0.00041357      0.48945765
      0.49921762      0.16593250      0.55096148
      0.62500000      0.08333300      0.25000000
      0.50000000     -0.00000000      0.30983183
      0.50016060      0.16631629      0.36972496
      0.49996308      0.33333742      0.42950327
      0.62500000      0.25110398      0.48995303
      0.62500000      0.41090638      0.55247268
      0.75000000      0.33333333      0.25000000
      0.62500000      0.25000000      0.30983183
      0.62500000      0.41663757      0.36980145
      0.62500000      0.58357014      0.42955867
      0.50048322      0.50011766      0.48966589
      0.49563328      0.66987102      0.55242901
      0.62500000      0.58333300      0.25000000
      0.50000000      0.50000000      0.30983183
      0.49994612      0.66652197      0.36972965
      0.49981673      0.83367539      0.42945075
      0.62500000      0.74935385      0.48951612
      0.62500000      0.91773771      0.55065891
      0.75000000      0.83333333      0.25000000
      0.62500000      0.75000000      0.30983183
      0.62500000      0.91671598      0.36977783
      0.87492822      0.08348509      0.42952428
      0.74997490     -0.00041357      0.48945765
      0.75078238      0.16593250      0.55096148
      0.87500000      0.08333300      0.25000000
      0.75000000     -0.00000000      0.30983183
      0.74983940      0.16631629      0.36972496
      0.75003692      0.33333742      0.42950327
      0.87482184      0.25008955      0.48946592
      0.87618307      0.41654742      0.55054259
     -0.00000000      0.33333333      0.25000000
      0.87500000      0.25000000      0.30983183
      0.87498929      0.41660536      0.36971526
      0.87492278      0.58367788      0.42953180
      0.74951678      0.50011766      0.48966589
      0.75436672      0.66987102      0.55242901
      0.87500000      0.58333300      0.25000000
      0.75000000      0.50000000      0.30983183
      0.75005388      0.66652197      0.36972965
      0.75018327      0.83367539      0.42945075
      0.87386078      0.74925796      0.48989861
      0.87599103      0.91802729      0.55095871
      0.00000000      0.83333333      0.25000000
      0.87500000      0.75000000      0.30983183
      0.87523442      0.91639981      0.36966508
