
1.0
     11.72462000      0.00000000      0.00000000
      0.00000000     10.15381800      0.00000000
      0.00000000      0.00000000     40.00000000
    H     O     Au
     2     1    96
Direct
      0.48671266      0.57449396      0.62118755
      0.59429209      0.66011480      0.61967524
      0.51157689      0.66597071      0.62137377
      0.12440496      0.08463007      0.42952078
      0.99899505      0.00176663      0.48951849
     -0.00119874      0.16935204      0.55081508
      0.12500000      0.08333300      0.25000000
      1.00000000     -0.00000000      0.30983200
      0.99970737      0.16707557      0.36973443
     -0.00058063      0.33461947      0.42954402
      0.12415614      0.25196660      0.48953237
      0.12370897      0.41946846      0.55103068
      0.25000000      0.33333300      0.25000000
      0.12500000      0.25000000      0.30983200
      0.12475842      0.41711749      0.36976937
      0.12440125      0.58466659      0.42955773
      0.99903661      0.50192152      0.48959104
      0.99863041      0.66943300      0.55112727
      0.12500000      0.58333300      0.25000000
      1.00000000      0.50000000      0.30983200
      0.99970841      0.66705937      0.36975441
      0.99943728      0.83464131      0.42946952
      0.12385519      0.75188977      0.48951575
      0.12373381      0.91942755      0.55096065
      0.25000000      0.83333300      0.25000000
      0.12500000      0.75000000      0.30983200
      0.12485823      0.91701920      0.36980115
      0.37449508      0.08463757      0.42954319
      0.24892066      0.00210482      0.48950113
      0.24861493      0.16983948      0.55105884
      0.37500000      0.08333300      0.25000000
      0.25000000      0.00000000      0.30983200
      0.24968965      0.16708317      0.36977853
      0.24944735      0.33473008      0.42954615
      0.37415407      0.25195559      0.48954755
      0.37357123      0.41934830      0.55110592
      0.50000000      0.33333300      0.25000000
      0.37500000      0.25000000      0.30983200
      0.37477052      0.41714575      0.36978448
      0.37451267      0.58478785      0.42963675
      0.24912427      0.50188204      0.48955949
      0.24796287      0.66938603      0.55091975
      0.37500000      0.58333300      0.25000000
      0.25000000      0.50000000      0.30983200
      0.24974885      0.66708679      0.36978652
      0.24978396      0.83446391      0.42967152
      0.37418551      0.75196549      0.48986437
      0.37341928      0.92095578      0.55084779
      0.50000000      0.83333300      0.25000000
      0.37500000      0.75000000      0.30983200
      0.37474063      0.91710157      0.36975786
      0.62432802      0.08468521      0.42954630
      0.49918421      0.00227580      0.48962130
      0.49894416      0.17032041      0.55116109
      0.62500000      0.08333300      0.25000000
      0.50000000      0.00000000      0.30983200
      0.49971850      0.16724943      0.36982855
      0.49942454      0.33515872      0.42967720
      0.62412267      0.25206920      0.48956606
      0.62412850      0.41954395      0.55116855
      0.75000000      0.33333300      0.25000000
      0.62500000      0.25000000      0.30983200
      0.62465859      0.41714562      0.36978807
      0.62430133      0.58480566      0.42964025
      0.49911877      0.50221384      0.48987923
      0.49820890      0.67075855      0.55101007
      0.62500000      0.58333300      0.25000000
      0.50000000      0.50000000      0.30983200
      0.49972195      0.66716256      0.36979447
      0.49937430      0.83468204      0.42966026
      0.62407341      0.75192831      0.48986969
      0.62423850      0.92062006      0.55090137
      0.75000000      0.83333300      0.25000000
      0.62500000      0.75000000      0.30983200
      0.62465747      0.91709370      0.36976927
      0.87442166      0.08468357      0.42950914
      0.74928425      0.00210501      0.48949923
      0.74908153      0.16974187      0.55104427
      0.87500000      0.08333300      0.25000000
      0.75000000      0.00000000      0.30983200
      0.74972653      0.16708209      0.36976845
      0.74940656      0.33472061      0.42954538
      0.87405316      0.25206490      0.48954999
      0.87372733      0.41961009      0.55110033
      1.00000000      0.33333300      0.25000000
      0.87500000      0.25000000      0.30983200
      0.87467847      0.41711680      0.36977416
      0.87442038      0.58467393      0.42956153
      0.74903502      0.50202330      0.48958515
      0.74928025      0.66941287      0.55117987
      0.87500000      0.58333300      0.25000000
      0.75000000      0.50000000      0.30983200
      0.74967454      0.66707451      0.36979366
      0.74903502      0.83451304      0.42964855
      0.87413454      0.75187159      0.48951326
      0.87374419      0.91924184      0.55104637
     -0.00000000      0.83333300      0.25000000
      0.87500000      0.75000000      0.30983200
      0.87459478      0.91701815      0.36980562
