
1.0
     11.72462000      0.00000000      0.00000000
      0.00000000     10.15381800      0.00000000
      0.00000000      0.00000000     40.00000000
    H     O     Au
     2     1    96
Direct
      0.63294418      0.57919020      0.57105849
      0.36854555      0.57664838      0.60318548
      0.36659964      0.66715723      0.59492249
      0.12483270      0.08264267      0.42915902
     -0.00036195     -0.00009668      0.48931033
     -0.00109570      0.16881460      0.55077344
      0.12500000      0.08333300      0.25000000
      0.00000000     -0.00000000      0.30983183
      0.99984267      0.16624237      0.36965950
      0.99944099      0.33350103      0.42928027
      0.12432934      0.25029481      0.48881090
      0.12337445      0.41648082      0.55023779
      0.25000000      0.33333333      0.25000000
      0.12500000      0.25000000      0.30983183
      0.12471984      0.41642444      0.36956436
      0.12471217      0.58321799      0.42954997
      0.99910003      0.50084074      0.48926684
     -0.00235293      0.66894185      0.55072084
      0.12500000      0.58333300      0.25000000
      0.00000000      0.50000000      0.30983183
     -0.00010697      0.66685548      0.36974551
      1.00081177      0.83213032      0.43023839
      0.12661362      0.74912906      0.49057780
      0.12346883      0.92206640      0.55108989
      0.25000000      0.83333333      0.25000000
      0.12500000      0.75000000      0.30983183
      0.12476650      0.91562459      0.36981555
      0.37485965      0.08268603      0.42902323
      0.24869856     -0.00026325      0.48886297
      0.24713633      0.16866314      0.55075976
      0.37500000      0.08333300      0.25000000
      0.25000000     -0.00000000      0.30983183
      0.24987626      0.16608509      0.36955950
      0.24962524      0.33388207      0.42913105
      0.37469579      0.24809967      0.48835906
      0.37371881      0.41063949      0.54819390
      0.50000000      0.33333333      0.25000000
      0.37500000      0.25000000      0.30983183
      0.37497380      0.41623403      0.36959432
      0.37491188      0.58352140      0.42954505
      0.24987033      0.50076960      0.48944092
      0.24073582      0.67028162      0.55154926
      0.37500000      0.58333300      0.25000000
      0.25000000      0.50000000      0.30983183
      0.24984872      0.66636454      0.36978394
      0.25046147      0.83196711      0.42991267
      0.37607912      0.74828474      0.49089144
      0.37402575      0.92612206      0.54887525
      0.50000000      0.83333333      0.25000000
      0.37500000      0.75000000      0.30983183
      0.37476582      0.91569870      0.36965264
      0.62481301      0.08334162      0.42948721
      0.50067983      0.99968048      0.48883192
      0.50073003      0.16810907      0.55077796
      0.62500000      0.08333300      0.25000000
      0.50000000      0.00000000      0.30983183
      0.50019111      0.16594551      0.36956307
      0.50009929      0.33363563      0.42917933
      0.62494774      0.25144411      0.48946323
      0.62471739      0.41155999      0.55207599
      0.75000000      0.33333333      0.25000000
      0.62500000      0.25000000      0.30983183
      0.62508670      0.41672375      0.36964373
      0.62466293      0.58348139      0.42968965
      0.49994038      0.50065485      0.48980547
      0.50417418      0.67645258      0.55317808
      0.62500000      0.58333300      0.25000000
      0.50000000      0.50000000      0.30983183
      0.50002720      0.66620812      0.36975884
      0.49945313      0.83239391      0.42963193
      0.62342451      0.74859961      0.49076940
      0.62660344      0.92366465      0.55065633
      0.75000000      0.83333333      0.25000000
      0.62500000      0.75000000      0.30983183
      0.62513626      0.91622692      0.36978499
      0.87479080      0.08270329      0.42934796
      0.75020349      0.99974584      0.48927117
      0.75160793      0.16809913      0.55071202
      0.87500000      0.08333300      0.25000000
      0.75000000      0.00000000      0.30983183
      0.74985006      0.16607691      0.36962417
      0.74995737      0.33319047      0.42923873
      0.87450222      0.25030833      0.48918816
      0.87544561      0.41786121      0.55041991
      0.00000000      0.33333333      0.25000000
      0.87500000      0.25000000      0.30983183
      0.87485926      0.41688358      0.36961244
      0.87484497      0.58378281      0.42946705
      0.74929742      0.50027071      0.48939912
      0.75595165      0.67158231      0.55253336
      0.87500000      0.58333300      0.25000000
      0.75000000      0.50000000      0.30983183
      0.74991751      0.66661016      0.36978979
      0.74887983      0.83260680      0.42992359
      0.87348546      0.74984198      0.48966408
      0.87580186      0.91957390      0.55113510
     -0.00000000      0.83333333      0.25000000
      0.87500000      0.75000000      0.30983183
      0.87517699      0.91561056      0.37009753
