
1.0
     11.72462000      0.00000000      0.00000000
      0.00000000     11.72462000      0.00000000
      0.00000000      0.00000000     40.00000000
    H     O     Cu    Au
     2     1    32    64
Direct
      0.76203107      0.58963721      0.52486697
      0.76853210      0.46342824      0.53613809
      0.81657337      0.52797322      0.52990438
      0.63343091      0.74033152      0.39503149
      0.51022051      0.35630259      0.44022894
      0.49774621      0.64460236      0.43947258
      0.75870214      0.12784387      0.44260053
      0.64730066      0.97823941      0.48099257
      0.75290019      0.37849163      0.34887484
      0.76650504      0.37166065      0.43835231
      0.65591106      0.27326791      0.47931273
      0.74920071      0.62326065      0.34947708
      0.76647383      0.63180928      0.44085359
      0.62867027      0.50013359      0.47075126
      0.76112449      0.12795324      0.34768677
      0.99501741      0.12250575      0.34751722
      0.88211461      0.00578951      0.39002597
      0.87357547      0.23852287      0.39264263
      0.98945360      0.36277495      0.43674041
      0.87628684      0.25667818      0.47945920
      0.99299321      0.63273058      0.44129486
      0.87185218      0.48932120      0.47818752
      0.99691218      0.87271914      0.34836627
      0.87743138      0.73913511      0.39372808
      0.87656058      0.75520861      0.48168462
      0.25045264      0.87244250      0.34637291
      0.25371373      0.12284374      0.34783459
      0.23445809      0.11008944      0.43790932
      0.23680298      0.37703269      0.44001525
      0.11654612      0.24870913      0.47738078
      0.24751017      0.62667375      0.34861679
      0.12739254      0.75397638      0.39117870
      0.23794990      0.87755162      0.43921217
      0.36018665     -0.00024401      0.39546391
      0.35884090      0.00059312      0.47684249
      0.75000000      0.37500000      0.25000000
      0.62500000      0.25000000      0.30181575
      0.00000000      0.12500000      0.25000000
      0.50000000      0.37500000      0.25000000
      0.75000000      0.87500000      0.25000000
      0.87500000      0.50000000      0.30181575
      0.75000000      0.62500000      0.25000000
      0.12500000      0.00000000      0.30181575
      0.00000000      0.37500000      0.25000000
      0.62500000      0.00000000      0.30181575
      0.62500000      0.50000000      0.30181575
      0.50000000      0.12500000      0.25000000
      0.12500000      0.25000000      0.30181575
      0.00000000      0.62500000      0.25000000
      0.12500000      0.50000000      0.30181575
      0.87500000      0.25000000      0.30181575
      0.87500000      0.75000000      0.30181575
      0.00000000      0.87500000      0.25000000
      0.12500000      0.75000000      0.30181575
      0.87500000      0.00000000      0.30181575
      0.25000000      0.12500000      0.25000000
      0.50000000      0.62500000      0.25000000
      0.37500000      0.75000000      0.30181575
      0.37500000      0.00000000      0.30181575
      0.25000000      0.87500000      0.25000000
      0.75000000      0.12500000      0.25000000
      0.62500000      0.75000000      0.30181575
      0.25000000      0.37500000      0.25000000
      0.37500000      0.50000000      0.30181575
      0.50000000      0.87500000      0.25000000
      0.25000000      0.62500000      0.25000000
      0.37500000      0.25000000      0.30181575
      0.39671492      0.49149512      0.47953387
      0.12894304      0.99370029      0.38789152
      0.13021708      0.00465220      0.48695060
      0.25258729      0.37698408      0.35104473
      0.12362789      0.24118698      0.39444163
      0.12166799      0.50666150      0.39735724
      0.23499685      0.63438060      0.44510957
      0.09853722      0.47990335      0.48299335
      0.10440519      0.75741219      0.49050987
      0.49501637      0.12366444      0.35165980
      0.52144371      0.12591342      0.44866952
      0.50474790      0.37532886      0.35238415
      0.36921369      0.23800776      0.40057370
      0.34501702      0.24345960      0.48109792
      0.50172614      0.62821967      0.35196230
      0.37564463      0.50041720      0.40113230
      0.00212580      0.86755345      0.43469655
      0.49981287      0.87772657      0.35366499
      0.35390811      0.75440766      0.39488754
      0.50241395      0.88150466      0.43714934
      0.37455290      0.76787312      0.48627322
      0.64566932      0.01476370      0.39502991
      0.64811265      0.25383903      0.39535820
      0.63020829      0.50836044      0.40070063
      0.75837964      0.86617133      0.35214072
      0.76054914      0.86443479      0.43573747
      0.63541770      0.73257268      0.48536254
      0.98762858      0.12077992      0.43861973
      0.87027051      0.99757210      0.48844926
      0.99100728      0.36918304      0.35111242
      0.00115458      0.63391562      0.35039520
      0.87144314      0.50489094      0.39664383
