
1.0
     11.72462000      0.00000000      0.00000000
      0.00000000     11.72462000      0.00000000
      0.00000000      0.00000000     40.00000000
    H     O     Cu    Au
     2     1    32    64
Direct
      0.27350939      0.58636949      0.53266920
      0.24425258      0.45889273      0.53181806
      0.30521295      0.51156989      0.53825952
      0.63275406      0.74389528      0.39444599
      0.51701523      0.35904826      0.43949466
      0.49988978      0.64423505      0.43918499
      0.76035992      0.13337389      0.44420362
      0.64868017      0.97761097      0.48125517
      0.75385355      0.37891671      0.34852857
      0.76664763      0.36829592      0.43639208
      0.66040806      0.28225148      0.48062415
      0.74920328      0.62648193      0.34918353
      0.76108299      0.63863539      0.43798538
      0.63938347      0.50289858      0.47086787
      0.76128190      0.12682934      0.34740108
      0.99530894      0.12196744      0.34738831
      0.88323236      0.00568782      0.39027326
      0.87364035      0.23503547      0.39217791
      0.99098016      0.36146758      0.43387193
      0.88262211      0.27219925      0.47952550
      0.99506930      0.63699340      0.43933820
      0.86187193      0.50062727      0.47403677
      0.99747333      0.87321837      0.34804744
      0.87920976      0.74427469      0.39280494
      0.87563928      0.74360484      0.48132116
      0.25053328      0.87155909      0.34669304
      0.25410196      0.12244733      0.34792688
      0.23263628      0.10985265      0.43790362
      0.23390284      0.38199045      0.44102111
      0.11674625      0.25058386      0.47742900
      0.24847719      0.62719988      0.34870013
      0.12677604      0.75371483      0.39180905
      0.23709230      0.87765200      0.43943604
      0.35910241     -0.00013479      0.39579931
      0.36056838      0.00469028      0.47608394
      0.75000000      0.37500000      0.25000000
      0.62500000      0.25000000      0.30181563
     -0.00000000      0.12500000      0.25000000
      0.50000000      0.37500000      0.25000000
      0.75000000      0.87500000      0.25000000
      0.87500000      0.50000000      0.30181563
      0.75000000      0.62500000      0.25000000
      0.12500000      0.00000000      0.30181563
      0.00000000      0.37500000      0.25000000
      0.62500000      0.00000000      0.30181563
      0.62500000      0.50000000      0.30181563
      0.50000000      0.12500000      0.25000000
      0.12500000      0.25000000      0.30181563
     -0.00000000      0.62500000      0.25000000
      0.12500000      0.50000000      0.30181563
      0.87500000      0.25000000      0.30181563
      0.87500000      0.75000000      0.30181563
     -0.00000000      0.87500000      0.25000000
      0.12500000      0.75000000      0.30181563
      0.87500000      0.00000000      0.30181563
      0.25000000      0.12500000      0.25000000
      0.50000000      0.62500000      0.25000000
      0.37500000      0.75000000      0.30181563
      0.37500000      0.00000000      0.30181563
      0.25000000      0.87500000      0.25000000
      0.75000000      0.12500000      0.25000000
      0.62500000      0.75000000      0.30181563
      0.25000000      0.37500000      0.25000000
      0.37500000      0.50000000      0.30181563
      0.50000000      0.87500000      0.25000000
      0.25000000      0.62500000      0.25000000
      0.37500000      0.25000000      0.30181563
      0.41214360      0.48881252      0.48069476
      0.12841502      0.99292197      0.38801409
      0.13107129      0.00409999      0.48724379
      0.25287038      0.37707486      0.35123254
      0.12518334      0.23880179      0.39409974
      0.12370034      0.50921699      0.39705332
      0.23912169      0.62538188      0.44729368
      0.08141036      0.47910753      0.48264472
      0.10592233      0.75447025      0.49034106
      0.49382552      0.12316722      0.35193421
      0.52774554      0.13031490      0.44991148
      0.50328810      0.37536030      0.35213388
      0.37020811      0.23860880      0.40155504
      0.34495278      0.24431122      0.47998198
      0.49987207      0.62937477      0.35201161
      0.37704618      0.49904235      0.40172384
      0.00266836      0.86888212      0.43551887
      0.49848105      0.87824890      0.35415813
      0.35235778      0.75313255      0.39585974
      0.50302120      0.88391107      0.43688607
      0.37283906      0.77318167      0.48579425
      0.64721452      0.01645474      0.39556824
      0.64782474      0.25307828      0.39415804
      0.63101730      0.50888753      0.39923238
      0.75758816      0.86889416      0.35179176
      0.76228229      0.86585959      0.43591133
      0.63385457      0.73504010      0.48477588
      0.98621443      0.12269115      0.43960597
      0.87211321      0.99189286      0.48859334
      0.99161180      0.36880012      0.35135166
      0.00191119      0.63458867      0.35015550
      0.87169350      0.50748140      0.39599269
