
1.0
     11.72462000      0.00000000      0.00000000
      0.00000000     11.72462000      0.00000000
      0.00000000      0.00000000     40.00000000
    H     O     Cu    Au
     2     1    32    64
Direct
      0.24744837      0.75410681      0.51089686
      0.40400774      0.36595461      0.53483194
      0.34506787      0.38355708      0.51844124
      0.63380306      0.74534677      0.39430747
      0.51097503      0.36131233      0.44123513
      0.50433866      0.64516897      0.43784802
      0.75588861      0.13057507      0.44298523
      0.64476715      0.97956927      0.48105288
      0.75227753      0.37780137      0.34877981
      0.76707818      0.36725493      0.43630455
      0.65844382      0.27767374      0.47956730
      0.74892085      0.62635077      0.34924287
      0.76087445      0.63955490      0.43754320
      0.64467119      0.50126955      0.47080941
      0.75966758      0.12708193      0.34749243
      0.99458161      0.12162468      0.34740348
      0.88088153      0.00401683      0.38999329
      0.87132318      0.23790226      0.39160435
      0.98995073      0.36096074      0.43420771
      0.87845592      0.26503929      0.47915524
      0.99777774      0.63797852      0.43877593
      0.86653195      0.50054642      0.47275451
      0.99746896      0.87312934      0.34792508
      0.87928229      0.74653797      0.39305862
      0.87759459      0.73921989      0.48098833
      0.24991703      0.87151933      0.34664586
      0.25394138      0.12205218      0.34801769
      0.23400615      0.11062495      0.43759299
      0.23406045      0.37507772      0.44037039
      0.10848156      0.24943211      0.47709003
      0.24843269      0.62716128      0.34871593
      0.12623940      0.75429803      0.39243020
      0.23726633      0.87828659      0.43913124
      0.35969900     -0.00091061      0.39569821
      0.35693943      0.00181984      0.47653094
      0.75000000      0.37500000      0.25000000
      0.62500000      0.25000000      0.30181563
      0.00000000      0.12500000      0.25000000
      0.50000000      0.37500000      0.25000000
      0.75000000      0.87500000      0.25000000
      0.87500000      0.50000000      0.30181563
      0.75000000      0.62500000      0.25000000
      0.12500000     -0.00000000      0.30181563
     -0.00000000      0.37500000      0.25000000
      0.62500000     -0.00000000      0.30181563
      0.62500000      0.50000000      0.30181563
      0.50000000      0.12500000      0.25000000
      0.12500000      0.25000000      0.30181563
      0.00000000      0.62500000      0.25000000
      0.12500000      0.50000000      0.30181563
      0.87500000      0.25000000      0.30181563
      0.87500000      0.75000000      0.30181563
     -0.00000000      0.87500000      0.25000000
      0.12500000      0.75000000      0.30181563
      0.87500000     -0.00000000      0.30181563
      0.25000000      0.12500000      0.25000000
      0.50000000      0.62500000      0.25000000
      0.37500000      0.75000000      0.30181563
      0.37500000     -0.00000000      0.30181563
      0.25000000      0.87500000      0.25000000
      0.75000000      0.12500000      0.25000000
      0.62500000      0.75000000      0.30181563
      0.25000000      0.37500000      0.25000000
      0.37500000      0.50000000      0.30181563
      0.50000000      0.87500000      0.25000000
      0.25000000      0.62500000      0.25000000
      0.37500000      0.25000000      0.30181563
      0.42086661      0.51179259      0.48249440
      0.12766359      0.99219798      0.38811609
      0.12689220      0.00905553      0.48680323
      0.25362880      0.37711556      0.35118349
      0.12452537      0.23831882      0.39353416
      0.12340953      0.50689152      0.39681024
      0.23890321      0.62578168      0.44595481
      0.08602597      0.47973148      0.48201200
      0.10721682      0.75382435      0.49107515
      0.49286148      0.12318516      0.35199584
      0.52056530      0.13026631      0.44961025
      0.50336165      0.37536570      0.35198575
      0.37031032      0.23979894      0.40174596
      0.33481033      0.23248338      0.48324797
      0.50002361      0.62886380      0.35219002
      0.37796113      0.49753793      0.40239800
      0.00271926      0.86932544      0.43682957
      0.49789039      0.87758261      0.35378669
      0.35245649      0.75346692      0.39563199
      0.50070916      0.88149239      0.43780209
      0.37509859      0.77044945      0.48736321
      0.64380559      0.01356415      0.39560420
      0.64459069      0.25210371      0.39490136
      0.63141974      0.50681280      0.39927116
      0.75729633      0.86905677      0.35149125
      0.76258079      0.86725240      0.43690741
      0.63408130      0.73372486      0.48482220
      0.98365157      0.12176474      0.43774457
      0.86803900      1.00452454      0.48886300
      0.99145140      0.36940828      0.35110789
      0.00186699      0.63536682      0.35043273
      0.87150038      0.50758399      0.39592889
