
1.0
     11.72462000      0.00000000      0.00000000
      0.00000000     11.72462000      0.00000000
      0.00000000      0.00000000     40.00000000
    H     O     Cu    Au
     2     1    32    64
Direct
      0.43071116      0.36419048      0.53522982
      0.51242450      0.46581661      0.53740816
      0.43327496      0.44448031      0.54162217
      0.24993641      0.12618854      0.34464865
      0.24944786      0.12224698      0.43117456
      0.24994215      0.37387705      0.34464644
      0.25073390      0.37815193      0.43153478
      0.24991346      0.62599181      0.34463332
      0.25118998      0.62207124      0.43158938
      0.24987256      0.87389082      0.34462224
      0.24997994      0.87718874      0.43129418
      0.50002440      0.12618882      0.34465983
      0.50035449      0.12248390      0.43124036
      0.50010140      0.37396854      0.34466391
      0.49847402      0.37792911      0.43157753
      0.50012227      0.62592243      0.34465257
      0.49819458      0.62252516      0.43153506
      0.50007856      0.87395401      0.34463369
      0.49991755      0.87709790      0.43129657
      0.74988039      0.12617251      0.34464267
      0.74989583      0.12334849      0.43131922
      0.74979405      0.37401269      0.34468206
      0.75056568      0.37611065      0.43125405
      0.74978939      0.62591374      0.34467816
      0.75072642      0.62391551      0.43119424
      0.74986342      0.87387103      0.34464337
      0.74997850      0.87672362      0.43129989
      0.00008003      0.12610601      0.34463179
     -0.00000477      0.12310839      0.43129834
      0.00006791      0.37399824      0.34464482
     -0.00024513      0.37677332      0.43131085
      0.00007752      0.62602575      0.34464728
     -0.00036524      0.62321612      0.43130944
      0.00010163      0.87379170      0.34463076
     -0.00007088      0.87679574      0.43129327
      0.00000000      0.12500000      0.25000000
      0.12500000      0.00000000      0.30181615
      0.12517511      0.25026064      0.38815306
      0.12535025      0.25008974      0.47354981
     -0.00000000      0.37500000      0.25000000
      0.12500000      0.25000000      0.30181615
      0.12499635      0.50005728      0.38725814
      0.12398996      0.49997611      0.47461403
     -0.00000000      0.62500000      0.25000000
      0.12500000      0.50000000      0.30181615
      0.12530519      0.74963795      0.38820737
      0.12511400      0.74980707      0.47356320
     -0.00000000      0.87500000      0.25000000
      0.12500000      0.75000000      0.30181615
      0.12479149     -0.00016554      0.38710590
      0.12472174     -0.00009294      0.47456692
      0.25000000      0.12500000      0.25000000
      0.37500000      0.00000000      0.30181615
      0.37486399      0.25004059      0.38817383
      0.37469927      0.24857362      0.47329574
      0.25000000      0.37500000      0.25000000
      0.37500000      0.25000000      0.30181615
      0.37493592      0.49996175      0.38705612
      0.37365027      0.50107882      0.47565157
      0.25000000      0.62500000      0.25000000
      0.37500000      0.50000000      0.30181615
      0.37485121      0.75000743      0.38801355
      0.37485285      0.75095106      0.47380758
      0.25000000      0.87500000      0.25000000
      0.37500000      0.75000000      0.30181615
      0.37498006     -0.00003230      0.38712167
      0.37503707     -0.00014705      0.47463780
      0.50000000      0.12500000      0.25000000
      0.62500000      0.00000000      0.30181615
      0.62467061      0.25024794      0.38816406
      0.62423538      0.25056789      0.47368148
      0.50000000      0.37500000      0.25000000
      0.62500000      0.25000000      0.30181615
      0.62483357      0.50004437      0.38745501
      0.62623659      0.50027604      0.47403885
      0.50000000      0.62500000      0.25000000
      0.62500000      0.50000000      0.30181615
      0.62460802      0.74978021      0.38815124
      0.62463460      0.74962939      0.47356979
      0.50000000      0.87500000      0.25000000
      0.62500000      0.75000000      0.30181615
      0.62509798     -0.00005543      0.38718119
      0.62521067      0.00003914      0.47455566
      0.75000000      0.12500000      0.25000000
      0.87500000      0.00000000      0.30181615
      0.87508434      0.24986989      0.38797396
      0.87492704      0.24977171      0.47373520
      0.75000000      0.37500000      0.25000000
      0.87500000      0.25000000      0.30181615
      0.87495842      0.49994154      0.38718118
      0.87498282      0.49995281      0.47458086
      0.75000000      0.62500000      0.25000000
      0.87500000      0.50000000      0.30181615
      0.87508071      0.75011366      0.38792333
      0.87496241      0.75024396      0.47375552
      0.75000000      0.87500000      0.25000000
      0.87500000      0.75000000      0.30181615
      0.87493578     -0.00000146      0.38720259
      0.87486604      0.00006302      0.47450696
