1.0
     11.72462000      0.00000000      0.00000000
      0.00000000     11.72462000      0.00000000
      0.00000000      0.00000000     40.00000000
    H     O     Cu    Au
     2     1    32    64
Direct
      0.49994985      0.25781542      0.49759598
      0.49985106      0.57108402      0.52795445
      0.49996970      0.49485654      0.51816123
      0.25081301      0.12732697      0.34473679
      0.24947042      0.12212305      0.43114222
      0.25112180      0.37304993      0.34467503
      0.25094195      0.38093183      0.43190421
      0.25094893      0.62639123      0.34467980
      0.25076631      0.61785704      0.43166335
      0.25069824      0.87295684      0.34477283
      0.24921947      0.87825280      0.43092765
      0.49997458      0.12750653      0.34482673
      0.49995347      0.12192149      0.43183936
      0.49996954      0.37280428      0.34469923
      0.49999197      0.38269265      0.43318056
      0.49998080      0.62649142      0.34473045
      0.50002894      0.61611377      0.43269709
      0.49998109      0.87296869      0.34486154
      0.49996308      0.87852914      0.43116425
      0.74916971      0.12734747      0.34473579
      0.75046730      0.12215130      0.43112605
      0.74892164      0.37305523      0.34467203
      0.74886814      0.38097134      0.43190542
      0.74907737      0.62639229      0.34467765
      0.74904178      0.61778834      0.43166111
      0.74929109      0.87295653      0.34477268
      0.75073387      0.87828567      0.43091310
     -0.00000243      0.12732339      0.34464137
     -0.00002549      0.12208956      0.43076265
     -0.00001157      0.37283345      0.34452501
     -0.00000030      0.37751725      0.43067463
     -0.00001330      0.62710488      0.34456808
      0.00001738      0.62240087      0.43076934
     -0.00001712      0.87257112      0.34460992
     -0.00004200      0.87759830      0.43095893
      0.00000000      0.12500000      0.25000000
      0.12500000      0.00000000      0.30181615
      0.12596458      0.25068990      0.38824300
      0.12422350      0.24972170      0.47284286
      0.00000000      0.37500000      0.25000000
      0.12500000      0.25000000      0.30181615
      0.12502001      0.49971525      0.38646591
      0.12067047      0.49980426      0.47496057
      0.00000000      0.62500000      0.25000000
      0.12500000      0.50000000      0.30181615
      0.12586947      0.74913085      0.38832741
      0.12531475      0.74987671      0.47290095
      0.00000000      0.87500000      0.25000000
      0.12500000      0.75000000      0.30181615
      0.12493257      0.00004009      0.38659628
      0.12443967      0.99986689      0.47454890
      0.25000000      0.12500000      0.25000000
      0.37500000      0.00000000      0.30181615
      0.37580818      0.25097045      0.38933275
      0.37017731      0.24862575      0.47463114
      0.25000000      0.37500000      0.25000000
      0.37500000      0.25000000      0.30181615
      0.37564409      0.49944350      0.38727750
      0.36363654      0.50142754      0.47797912
      0.25000000      0.62500000      0.25000000
      0.37500000      0.50000000      0.30181615
      0.37550675      0.74873216      0.38882554
      0.37496392      0.75084583      0.47272905
      0.25000000      0.87500000      0.25000000
      0.37500000      0.75000000      0.30181615
      0.37516612      1.00035382      0.38703514
      0.37396391      0.99853401      0.47465804
      0.50000000      0.12500000      0.25000000
      0.62500000     -0.00000000      0.30181615
      0.62414387      0.25098010      0.38932205
      0.62972883      0.24862161      0.47463914
      0.50000000      0.37500000      0.25000000
      0.62500000      0.25000000      0.30181615
      0.62431873      0.49943686      0.38724876
      0.63624171      0.50146784      0.47802191
      0.50000000      0.62500000      0.25000000
      0.62500000      0.50000000      0.30181615
      0.62445723      0.74874882      0.38881339
      0.62497662      0.75089830      0.47272919
      0.50000000      0.87500000      0.25000000
      0.62500000      0.75000000      0.30181615
      0.62476596      1.00037335      0.38702835
      0.62594997      0.99855764      0.47463733
      0.75000000      0.12500000      0.25000000
      0.87500000     -0.00000000      0.30181615
      0.87401251      0.25071771      0.38824795
      0.87565073      0.24975702      0.47282638
      0.75000000      0.37500000      0.25000000
      0.87500000      0.25000000      0.30181615
      0.87496653      0.49972430      0.38648246
      0.87917985      0.49980756      0.47493879
      0.75000000      0.62500000      0.25000000
      0.87500000      0.50000000      0.30181615
      0.87408784      0.74911187      0.38833771
      0.87457669      0.74984393      0.47287457
      0.75000000      0.87500000      0.25000000
      0.87500000      0.75000000      0.30181615
      0.87502468      0.00005749      0.38658698
      0.87544664      0.99989181      0.47454205
