
1.0
     11.72462000      0.00000000      0.00000000
      0.00000000     11.72462000      0.00000000
      0.00000000      0.00000000     40.00000000
    H     Cu    Au
     1    32    64
Direct
      0.24625140      0.75184942      0.51151831
      0.63272932      0.74418991      0.39467080
      0.51620072      0.35671815      0.44001325
      0.50021727      0.64485532      0.43902969
      0.75865964      0.12904987      0.44388498
      0.64882192      0.97785550      0.48131349
      0.75274318      0.37793696      0.34862444
      0.76542276      0.36911471      0.43718944
      0.65841893      0.27722065      0.48049420
      0.74879753      0.62603434      0.34931134
      0.76075965      0.63673414      0.43836232
      0.63739789      0.50127436      0.47140809
      0.76100900      0.12659263      0.34774445
      0.99473555      0.12201284      0.34754821
      0.88230911      0.00507341      0.39059125
      0.87318033      0.23758113      0.39249667
      0.99014993      0.36201147      0.43503562
      0.87883151      0.26701827      0.47951961
      0.99487148      0.63492249      0.43923975
      0.86598987      0.50000795      0.47417539
      0.99748588      0.87293062      0.34822158
      0.87874391      0.74377502      0.39305183
      0.87717540      0.74104096      0.48139637
      0.25006326      0.87201734      0.34670888
      0.25370213      0.12225736      0.34813031
      0.23362054      0.11029327      0.43801022
      0.23409990      0.38025758      0.44060307
      0.11638801      0.25005153      0.47735379
      0.24843765      0.62734923      0.34872760
      0.12733089      0.75362117      0.39210878
      0.23911734      0.87951765      0.43916882
      0.36058874     -0.00022471      0.39590235
      0.35731678      0.00483151      0.47726063
      0.75000000      0.37500000      0.25000000
      0.62500000      0.25000000      0.30181563
      0.00000000      0.12500000      0.25000000
      0.50000000      0.37500000      0.25000000
      0.75000000      0.87500000      0.25000000
      0.87500000      0.50000000      0.30181563
      0.75000000      0.62500000      0.25000000
      0.12500000     -0.00000000      0.30181563
     -0.00000000      0.37500000      0.25000000
      0.62500000      0.00000000      0.30181563
      0.62500000      0.50000000      0.30181563
      0.50000000      0.12500000      0.25000000
      0.12500000      0.25000000      0.30181563
     -0.00000000      0.62500000      0.25000000
      0.12500000      0.50000000      0.30181563
      0.87500000      0.25000000      0.30181563
      0.87500000      0.75000000      0.30181563
      0.00000000      0.87500000      0.25000000
      0.12500000      0.75000000      0.30181563
      0.87500000     -0.00000000      0.30181563
      0.25000000      0.12500000      0.25000000
      0.50000000      0.62500000      0.25000000
      0.37500000      0.75000000      0.30181563
      0.37500000      0.00000000      0.30181563
      0.25000000      0.87500000      0.25000000
      0.75000000      0.12500000      0.25000000
      0.62500000      0.75000000      0.30181563
      0.25000000      0.37500000      0.25000000
      0.37500000      0.50000000      0.30181563
      0.50000000      0.87500000      0.25000000
      0.25000000      0.62500000      0.25000000
      0.37500000      0.25000000      0.30181563
      0.40383581      0.49086370      0.47911684
      0.12743514      0.99303549      0.38822111
      0.12864116      0.00617455      0.48708542
      0.25306415      0.37634687      0.35108978
      0.12431228      0.23938702      0.39431597
      0.12224663      0.50631726      0.39673025
      0.23652974      0.63019799      0.44520518
      0.08758737      0.48057339      0.48273018
      0.10540446      0.75256032      0.49174521
      0.49411401      0.12301887      0.35191672
      0.52412903      0.12751723      0.44972024
      0.50414919      0.37466471      0.35217085
      0.36996050      0.23859071      0.40128137
      0.34528620      0.24600988      0.48059059
      0.50076933      0.62895123      0.35198713
      0.37695622      0.49907471      0.40132704
      0.00440408      0.86654871      0.43633643
      0.49875503      0.87789683      0.35371176
      0.35406668      0.75450390      0.39549586
      0.49953090      0.88136257      0.43871582
      0.37383550      0.76810163      0.48792498
      0.64380308      0.01317731      0.39594753
      0.64793377      0.25146803      0.39476467
      0.63009091      0.50782288      0.39969110
      0.75794940      0.86906709      0.35193582
      0.76297187      0.86512291      0.43625284
      0.63397476      0.73415964      0.48483885
      0.98522867      0.12243304      0.43923883
      0.87244096      0.99275672      0.48875101
      0.99126148      0.36840801      0.35112059
      0.00169230      0.63479476      0.35037535
      0.87051720      0.50590818      0.39589185
