
1.0
     11.72462000      0.00000000      0.00000000
      0.00000000     11.72462000      0.00000000
      0.00000000      0.00000000     40.00000000
    H     Cu    Au
     1    32    64
Direct
      0.78022606      0.36616698      0.49240548
      0.63219816      0.74489465      0.39453191
      0.51306688      0.35911061      0.44039457
      0.49957975      0.64731366      0.43880178
      0.76073100      0.12802767      0.44385557
      0.64958951      0.97658479      0.48209119
      0.75230834      0.37797211      0.34876440
      0.76714029      0.37151698      0.43584420
      0.66258244      0.28328031      0.48047618
      0.74826614      0.62658010      0.34929184
      0.76117550      0.63772283      0.43836002
      0.63309919      0.50588237      0.47089300
      0.76121997      0.12748778      0.34787067
      0.99482855      0.12213222      0.34765838
      0.88323187      0.00617932      0.39067994
      0.87329903      0.23678502      0.39299142
      0.99384734      0.36540109      0.43405513
      0.88331908      0.27241476      0.47957473
      0.99155815      0.63425977      0.43983856
      0.86156112      0.49941010      0.47561364
      0.99816432      0.87410548      0.34815117
      0.87900387      0.74436244      0.39291158
      0.87255670      0.74312723      0.48188337
      0.24965277      0.87247366      0.34668876
      0.25371860      0.12207580      0.34795579
      0.23324223      0.10994431      0.43856963
      0.23370464      0.38327855      0.44067206
      0.11674031      0.25371835      0.47741800
      0.24882500      0.62785215      0.34853022
      0.12690979      0.75443518      0.39178435
      0.23836769      0.87777533      0.44014021
      0.35934369      0.00006095      0.39574126
      0.36008190      0.00482436      0.47719016
      0.75000000      0.37500000      0.25000000
      0.62500000      0.25000000      0.30181575
      0.00000000      0.12500000      0.25000000
      0.50000000      0.37500000      0.25000000
      0.75000000      0.87500000      0.25000000
      0.87500000      0.50000000      0.30181575
      0.75000000      0.62500000      0.25000000
      0.12500000      0.00000000      0.30181575
      0.00000000      0.37500000      0.25000000
      0.62500000      0.00000000      0.30181575
      0.62500000      0.50000000      0.30181575
      0.50000000      0.12500000      0.25000000
      0.12500000      0.25000000      0.30181575
      0.00000000      0.62500000      0.25000000
      0.12500000      0.50000000      0.30181575
      0.87500000      0.25000000      0.30181575
      0.87500000      0.75000000      0.30181575
      0.00000000      0.87500000      0.25000000
      0.12500000      0.75000000      0.30181575
      0.87500000      0.00000000      0.30181575
      0.25000000      0.12500000      0.25000000
      0.50000000      0.62500000      0.25000000
      0.37500000      0.75000000      0.30181575
      0.37500000      0.00000000      0.30181575
      0.25000000      0.87500000      0.25000000
      0.75000000      0.12500000      0.25000000
      0.62500000      0.75000000      0.30181575
      0.25000000      0.37500000      0.25000000
      0.37500000      0.50000000      0.30181575
      0.50000000      0.87500000      0.25000000
      0.25000000      0.62500000      0.25000000
      0.37500000      0.25000000      0.30181575
      0.40150546      0.49520342      0.47942344
      0.12838179      0.99352465      0.38858632
      0.13029316      0.00286509      0.48746398
      0.25300332      0.37619427      0.35118152
      0.12513132      0.23843985      0.39436023
      0.12361632      0.50952634      0.39645485
      0.23448001      0.63273064      0.44585840
      0.08528949      0.48334500      0.48303107
      0.10063577      0.75353655      0.49090932
      0.49393872      0.12403486      0.35202146
      0.52917795      0.13139089      0.45149273
      0.50406697      0.37506017      0.35240775
      0.36991238      0.23791097      0.40173132
      0.34481670      0.24758921      0.48021154
      0.50092459      0.62917187      0.35203836
      0.37546458      0.50105440      0.40122463
      0.00258242      0.86789991      0.43555342
      0.49875266      0.87850204      0.35356124
      0.35339347      0.75578368      0.39546876
      0.50105261      0.88614124      0.43774847
      0.37548426      0.76771765      0.48625151
      0.64466707      0.01516645      0.39549923
      0.64672470      0.25246368      0.39539485
      0.62914935      0.50882964      0.40017280
      0.75838002      0.86945021      0.35188594
      0.76168244      0.86601125      0.43593366
      0.63369122      0.73579848      0.48506711
      0.98579218      0.12431913      0.44037759
      0.87345998      0.98910168      0.48896783
      0.99115209      0.36812302      0.35140539
      0.00149108      0.63527311      0.35011416
      0.87106939      0.50802322      0.39567344
