
1.0
     11.72462000      0.00000000      0.00000000
      0.00000000     11.72462000      0.00000000
      0.00000000      0.00000000     40.00000000
    H     Cu    Au
     1    32    64
Direct
      0.50000000      0.24954292      0.49935572
      0.25057177      0.12433247      0.34464806
      0.24989688      0.12768630      0.43121973
      0.25057223      0.37560602      0.34463855
      0.24990377      0.37233403      0.43122478
      0.25035500      0.62368149      0.34460684
      0.24976422      0.62717471      0.43102315
      0.25035362      0.87633429      0.34461642
      0.24975766      0.87275024      0.43102363
      0.50000000      0.12444370      0.34463165
      0.50000000      0.12751318      0.43177240
      0.50000000      0.37553348      0.34462468
      0.50000000      0.37255654      0.43177070
      0.50000000      0.62357258      0.34464775
      0.50000000      0.62692268      0.43110585
      0.50000000      0.87644801      0.34465305
      0.50000000      0.87300625      0.43110642
      0.74942823      0.12433247      0.34464806
      0.75010312      0.12768631      0.43121973
      0.74942777      0.37560602      0.34463855
      0.75009623      0.37233403      0.43122478
      0.74964500      0.62368149      0.34460684
      0.75023577      0.62717471      0.43102315
      0.74964638      0.87633429      0.34461642
      0.75024234      0.87275024      0.43102363
     -0.00000000      0.12378387      0.34452680
      0.00000000      0.12679947      0.43088306
     -0.00000000      0.37619307      0.34451986
      0.00000000      0.37329874      0.43088222
      0.00000000      0.62409194      0.34456524
      0.00000000      0.62671768      0.43104471
     -0.00000000      0.87594370      0.34456965
     -0.00000000      0.87322125      0.43105193
      0.00000000      0.12500000      0.25000000
      0.12500000      0.00000000      0.30181615
      0.12497515      0.25000385      0.38686665
      0.12402027      0.25002700      0.47416654
     -0.00000000      0.37500000      0.25000000
      0.12500000      0.25000000      0.30181615
      0.12515296      0.49981501      0.38782164
      0.12468321      0.49993914      0.47337042
     -0.00000000      0.62500000      0.25000000
      0.12500000      0.50000000      0.30181615
      0.12496072      0.74998591      0.38701116
      0.12508559      0.74997600      0.47424035
      0.00000000      0.87500000      0.25000000
      0.12500000      0.75000000      0.30181615
      0.12514068      0.00016731      0.38784096
      0.12467974      0.00007479      0.47334726
      0.25000000      0.12500000      0.25000000
      0.37500000     -0.00000000      0.30181615
      0.37550073      0.25000566      0.38769085
      0.37015575      0.25002714      0.47618746
      0.25000000      0.37500000      0.25000000
      0.37500000      0.25000000      0.30181615
      0.37502707      0.49958439      0.38813935
      0.37416344      0.50117385      0.47336862
      0.25000000      0.62500000      0.25000000
      0.37500000      0.50000000      0.30181615
      0.37511110      0.74998609      0.38698561
      0.37517297      0.74997950      0.47434112
      0.25000000      0.87500000      0.25000000
      0.37500000      0.75000000      0.30181615
      0.37503333      0.00040406      0.38815687
      0.37415449     -0.00117992      0.47334486
      0.50000000      0.12500000      0.25000000
      0.62500000      0.00000000      0.30181615
      0.62449927      0.25000566      0.38769085
      0.62984425      0.25002714      0.47618746
      0.50000000      0.37500000      0.25000000
      0.62500000      0.25000000      0.30181615
      0.62497293      0.49958439      0.38813934
      0.62583656      0.50117385      0.47336862
      0.50000000      0.62500000      0.25000000
      0.62500000      0.50000000      0.30181615
      0.62488889      0.74998609      0.38698561
      0.62482703      0.74997950      0.47434112
      0.50000000      0.87500000      0.25000000
      0.62500000      0.75000000      0.30181615
      0.62496667      0.00040406      0.38815687
      0.62584551     -0.00117992      0.47334486
      0.75000000      0.12500000      0.25000000
      0.87500000     -0.00000000      0.30181615
      0.87502485      0.25000385      0.38686665
      0.87597973      0.25002700      0.47416654
      0.75000000      0.37500000      0.25000000
      0.87500000      0.25000000      0.30181615
      0.87484704      0.49981501      0.38782164
      0.87531679      0.49993914      0.47337042
      0.75000000      0.62500000      0.25000000
      0.87500000      0.50000000      0.30181615
      0.87503928      0.74998591      0.38701116
      0.87491441      0.74997600      0.47424035
      0.75000000      0.87500000      0.25000000
      0.87500000      0.75000000      0.30181615
      0.87485932      0.00016731      0.38784096
      0.87532026      0.00007479      0.47334726
