
1.0
     11.72461960      0.00000000      0.00000000
      0.00000000     11.72461960      0.00000000
      0.00000000      0.00000000     40.00000000
    Cu    Au
    47    79
Direct
      0.24822987      0.12208813      0.34503265
      0.25515562      0.13217569      0.43089403
      0.24455081      0.11960761      0.51740917
      0.24739760      0.37751462      0.34474840
      0.25763313      0.37198167      0.43142908
      0.24330264      0.38044924      0.51748617
      0.24726130      0.62271232      0.34473280
      0.25766955      0.62884547      0.43155120
      0.23947836      0.62110556      0.51720061
      0.24772228      0.87779746      0.34497889
      0.25564478      0.86762941      0.43117817
      0.24385548      0.88221555      0.51722465
      0.50167041      0.12210672      0.34495342
      0.49524164      0.13292627      0.43101817
      0.50515136      0.11781853      0.51741775
      0.50209768      0.37745348      0.34458599
      0.49453830      0.37188299      0.43120529
      0.51281281      0.38181242      0.51842507
      0.50170343      0.62250709      0.34447205
      0.49494700      0.63005108      0.43135144
      0.50137501      0.87807941      0.34478915
      0.49598423      0.86592059      0.43150970
      0.50356519      0.88563504      0.51701970
      0.74749123      0.12199611      0.34495804
      0.75470874      0.13252142      0.43092287
      0.74473566      0.11660952      0.51741684
      0.74788006      0.37764933      0.34466572
      0.75424668      0.37050911      0.43095959
      0.73956267      0.38496289      0.51901409
      0.74821800      0.62239222      0.34459927
      0.75224284      0.63090670      0.43124048
      0.74419670      0.61116969      0.51827905
      0.74810091      0.87798341      0.34484001
      0.75183795      0.86613923      0.43138508
      0.74474319      0.88279728      0.51731108
      1.00231370      0.12202237      0.34506439
      0.99447923      0.13188750      0.43081377
      1.00512628      0.11844669      0.51732493
      1.00243461      0.37787577      0.34487858
      0.99395551      0.36973435      0.43096684
      1.00671306      0.38025676      0.51753248
      1.00219540      0.62261257      0.34489726
      0.99359299      0.62956450      0.43108367
      1.00557860      0.61863405      0.51750446
      1.00217837      0.87749222      0.34506022
      0.99436165      0.86848586      0.43088833
      1.00459285      0.88159527      0.51736006
      0.00000000      0.12500000      0.25000015
      0.12500000      0.00000000      0.30181600
      0.12535927      0.25085081      0.38803430
      0.12501480      0.25047346      0.47384864
      0.12497133      0.24957703      0.56022204
      0.00000000      0.37500000      0.25000015
      0.12500000      0.25000000      0.30181600
      0.12531356      0.50021476      0.39050167
      0.12490155      0.49979523      0.47080795
      0.12663094      0.50031790      0.56309960
      0.00000000      0.62500000      0.25000015
      0.12500000      0.50000000      0.30181600
      0.12519677      0.74924329      0.38820789
      0.12404345      0.75002843      0.47374984
      0.12331916      0.75111302      0.56007599
      0.00000000      0.87500000      0.25000015
      0.12500000      0.75000000      0.30181600
      0.12513592     -0.00018616      0.39051656
      0.12459522      0.00039045      0.47050313
      0.12469538      0.00021665      0.56280619
      0.25000000      0.12500000      0.25000015
      0.37500000      0.00000000      0.30181600
      0.37509519      0.25080177      0.38572019
      0.37547821      0.25115488      0.47701005
      0.37715461      0.25323685      0.55700967
      0.25000000      0.37500000      0.25000015
      0.37500000      0.25000000      0.30181600
      0.37518889      0.50037516      0.38771590
      0.37883757      0.50239167      0.47610523
      0.38044622      0.50521070      0.55589287
      0.25000000      0.62500000      0.25000015
      0.37500000      0.50000000      0.30181600
      0.37494515      0.74961357      0.38565862
      0.37615916      0.74839954      0.47782328
      0.37759076      0.74740454      0.55525223
      0.25000000      0.87500000      0.25000015
      0.37500000      0.75000000      0.30181600
      0.37536219     -0.00038561      0.38874624
      0.37464287      0.00068273      0.47316422
      0.37403111      0.00109877      0.56045451
      0.50000000      0.12500000      0.25000015
      0.62500000      0.00000000      0.30181600
      0.62467711      0.25073189      0.38777670
      0.62559980      0.25114940      0.47430301
      0.62575061      0.24675578      0.55940223
      0.50000000      0.37500000      0.25000015
      0.62500000      0.25000000      0.30181600
      0.62458238      0.50037010      0.38996884
      0.62298458      0.50169451      0.47217021
      0.50000000      0.62500000      0.25000015
      0.62500000      0.50000000      0.30181600
      0.62432230      0.74956383      0.38733311
      0.62236417      0.74573907      0.47636783
      0.61988368      0.74408343      0.55545153
      0.50000000      0.87500000      0.25000015
      0.62500000      0.75000000      0.30181600
      0.62446502     -0.00033544      0.39061218
      0.62471865      0.00009847      0.47050591
      0.62427027     -0.00236723      0.56316017
      0.75000000      0.12500000      0.25000015
      0.87500000      0.00000000      0.30181600
      0.87473215      0.25037831      0.38549058
      0.87449239      0.25025155      0.47715897
      0.87352071      0.25064143      0.55713139
      0.75000000      0.37500000      0.25000015
      0.87500000      0.25000000      0.30181600
      0.87438159      0.50028566      0.38814738
      0.87372950      0.49902476      0.47395078
      0.87718940      0.49853572      0.55974642
      0.75000000      0.62500000      0.25000015
      0.87500000      0.50000000      0.30181600
      0.87427200      0.74966696      0.38583140
      0.87383175      0.74940968      0.47693686
      0.87129016      0.74782892      0.55689619
      0.75000000      0.87500000      0.25000015
      0.87500000      0.75000000      0.30181600
      0.87410663     -0.00042539      0.38860163
      0.87436816     -0.00022684      0.47319043
      0.87491212     -0.00043386      0.56059480
