
1.0
     11.72462000      0.00000000      0.00000000
      0.00000000     11.72462000      0.00000000
      0.00000000      0.00000000     40.00000000
    Cu    Au
    47    80
Direct
      0.24949932      0.12629055      0.34473356
      0.25090549      0.12180218      0.43114872
      0.24907155      0.12776176      0.51764905
      0.24954119      0.37324045      0.34472288
      0.25055736      0.37808687      0.43094769
      0.24727659      0.37216185      0.51781634
      0.24964749      0.62666672      0.34468674
      0.25086412      0.62232075      0.43093719
      0.25012130      0.62682151      0.51872643
      0.24967415      0.87375393      0.34471930
      0.25089001      0.87742837      0.43116069
      0.24980484      0.87175407      0.51795338
      0.50003020      0.12618483      0.34468666
      0.49961305      0.12256056      0.43114357
      0.49963331      0.12815136      0.51766344
      0.50030220      0.37366384      0.34470998
      0.49827194      0.37655810      0.43056423
      0.50136522      0.37832123      0.51906639
      0.50043478      0.62623088      0.34469109
      0.49872952      0.62276993      0.43064622
      0.50014168      0.87369617      0.34470123
      0.49945646      0.87728984      0.43102676
      0.50114759      0.87106249      0.51866553
      0.74997897      0.12601750      0.34469929
      0.74965705      0.12276979      0.43111562
      0.74982070      0.12811845      0.51751938
      0.74964904      0.37357233      0.34469775
      0.75285312      0.37627116      0.43042510
      0.74283376      0.37890603      0.51845342
      0.74959498      0.62647096      0.34469430
      0.75234606      0.62311554      0.43054582
      0.74495340      0.62687048      0.51898355
      0.74989984      0.87384875      0.34472971
      0.75009544      0.87759319      0.43101582
      0.74978068      0.87323335      0.51777652
      1.00048688      0.12603489      0.34476396
      0.99947691      0.12214203      0.43110091
      1.00024438      0.12799080      0.51764355
      1.00061466      0.37310125      0.34467494
      0.99883394      0.37863025      0.43104838
      1.00048991      0.37190246      0.51756562
      1.00052721      0.62686127      0.34465224
      0.99910093      0.62210018      0.43104727
      1.00037661      0.62869640      0.51774998
      1.00034186      0.87404335      0.34472778
      0.99994823      0.87748692      0.43111081
      1.00048946      0.87248316      0.51767758
      0.00000000      0.12500000      0.25000015
      0.12500000      0.00000000      0.30181600
      0.12500656      0.24997994      0.38890199
      0.12476407      0.25045728      0.47299350
      0.12383520      0.24968830      0.56135306
     -0.00000000      0.37499999      0.25000015
      0.12500000      0.24999999      0.30181600
      0.12494035      0.50014331      0.38731213
      0.12486906      0.50062992      0.47482850
      0.11936147      0.49987689      0.56071578
     -0.00000000      0.62499998      0.25000015
      0.12500000      0.49999998      0.30181600
      0.12507551      0.75004452      0.38874752
      0.12580399      0.74916345      0.47341716
      0.12424459      0.75022080      0.56158634
      0.00000000      0.87499997      0.25000015
      0.12500000      0.74999997      0.30181600
      0.12516244     -0.00008705      0.38751963
      0.12523839     -0.00028858      0.47464494
      0.12474617      0.00021092      0.55981750
      0.24999999      0.12500000      0.25000015
      0.37499999     -0.00000000      0.30181600
      0.37463027      0.24951219      0.38828902
      0.37481399      0.25029891      0.47370620
      0.37532628      0.24946574      0.56092816
      0.24999999      0.37499999      0.25000015
      0.37499999      0.24999999      0.30181600
      0.37481331      0.49996959      0.38696650
      0.37416316      0.49928669      0.47459015
      0.36053469      0.49292298      0.56303842
      0.24999999      0.62499998      0.25000015
      0.37499999      0.49999998      0.30181600
      0.37486393      0.75020898      0.38826381
      0.37540317      0.74941217      0.47382918
      0.37209019      0.75268844      0.56283016
      0.24999999      0.87499997      0.25000015
      0.37499999      0.74999997      0.30181600
      0.37506709     -0.00005994      0.38727738
      0.37578039     -0.00087828      0.47523922
      0.37486347      0.00065258      0.55994684
      0.49999998      0.12500000      0.25000015
      0.62499998     -0.00000000      0.30181600
      0.62492818      0.24965612      0.38844528
      0.62423637      0.25084948      0.47355599
      0.62409586      0.25198461      0.56019322
      0.49999998      0.37499999      0.25000015
      0.62499998      0.24999999      0.30181600
      0.62523230      0.49983350      0.38762205
      0.62777391      0.49735299      0.47252377
      0.49999998      0.62499998      0.25000015
      0.62499998      0.49999998      0.30181600
      0.62504402      0.75007548      0.38854680
      0.62552736      0.75007561      0.47290119
      0.63187632      0.76355669      0.56433094
      0.49999998      0.87499997      0.25000015
      0.62499998      0.74999997      0.30181600
      0.62481512      0.00003342      0.38738452
      0.62444537     -0.00015729      0.47492089
      0.62515425      0.00493451      0.56035279
      0.74999997      0.12500000      0.25000015
      0.87499997     -0.00000000      0.30181600
      0.87545586      0.24944240      0.38823948
      0.87447329      0.25054175      0.47355234
      0.87209096      0.25293080      0.56027940
      0.74999997      0.37499999      0.25000015
      0.87499997      0.24999999      0.30181600
      0.87553234      0.50012540      0.38677185
      0.87443859      0.50073052      0.47541979
      0.87303869      0.50069366      0.55868979
      0.74999997      0.62499998      0.25000015
      0.87499997      0.49999998      0.30181600
      0.87544420      0.75050477      0.38825414
      0.87491950      0.75015973      0.47361565
      0.87562084      0.74953422      0.56108115
      0.74999997      0.87499997      0.25000015
      0.87499997      0.74999997      0.30181600
      0.87490025     -0.00001446      0.38741383
      0.87452839      0.00013503      0.47484665
      0.87511048      0.00100525      0.55974450
      0.51510860      0.61127730      0.52414092
