
1.0
     11.72462000      0.00000000      0.00000000
      0.00000000     11.72462000      0.00000000
      0.00000000      0.00000000     40.00000000
    Cu    Au
    48    80
Direct
      0.24973720      0.12671410      0.34462949
      0.25038333      0.12138674      0.43118217
      0.25000791      0.12880554      0.51784682
      0.24988765      0.37314439      0.34471282
      0.24891343      0.37779461      0.43076676
      0.24997474      0.37250745      0.51808009
      0.25012557      0.62696212      0.34470053
      0.24887679      0.62222448      0.43073434
      0.25341763      0.62749181      0.51892908
      0.24998978      0.87333177      0.34466218
      0.24958123      0.87885177      0.43105512
      0.25075272      0.87111354      0.51823575
      0.49980677      0.12673783      0.34462967
      0.49968016      0.12147731      0.43103174
      0.50014125      0.13061069      0.51806267
      0.49989621      0.37335470      0.34473859
      0.49973504      0.37736151      0.43053566
      0.49948952      0.37777743      0.51871409
      0.49998186      0.62684568      0.34477966
      0.50005110      0.62187202      0.43066740
      0.49987619      0.87322791      0.34469255
      0.49975957      0.87979425      0.43082158
      0.50038780      0.86882213      0.51891287
      0.75039129      0.12668719      0.34466926
      0.74934400      0.12138034      0.43102352
      0.75003556      0.13013890      0.51773367
      0.75018585      0.37311600      0.34474790
      0.75099327      0.37744142      0.43057157
      0.75041838      0.37169202      0.51719158
      0.74994161      0.62696194      0.34474635
      0.75091303      0.62216532      0.43058712
      0.74520904      0.62847948      0.51861732
      0.75015071      0.87345720      0.34471107
      0.75032791      0.87957612      0.43088913
      0.74954377      0.87187783      0.51805042
      1.00005771      0.12661953      0.34467119
      1.00060153      0.12115816      0.43113112
      0.99962908      0.12876454      0.51783628
      1.00005221      0.37291226      0.34467410
      1.00046032      0.37905058      0.43097543
      0.99886890      0.37199094      0.51770383
      0.99999726      0.62704507      0.34463996
      1.00036020      0.62224981      0.43100297
      0.99877133      0.62804196      0.51802851
      0.99998913      0.87362263      0.34463774
      1.00044993      0.87794564      0.43120205
      0.99969166      0.87187521      0.51783556
      0.63698379      0.48902450      0.55702996
      0.00000000      0.12500000      0.25000015
      0.12500000      0.00000000      0.30181600
      0.12490167      0.24970122      0.38871127
      0.12518326      0.25036345      0.47328106
      0.12444138      0.25047540      0.56120997
      0.00000000      0.37499999      0.25000015
      0.12500000      0.24999999      0.30181600
      0.12475391      0.50018491      0.38691958
      0.12499793      0.50082354      0.47541713
      0.12065227      0.50009029      0.56006647
      0.00000000      0.62499998      0.25000015
      0.12500000      0.49999998      0.30181600
      0.12485946      0.75037940      0.38852834
      0.12544710      0.74940337      0.47373029
      0.12355880      0.74962428      0.56146981
     -0.00000000      0.87499997      0.25000015
      0.12500000      0.74999997      0.30181600
      0.12501646      0.00003489      0.38717135
      0.12540350     -0.00025330      0.47522618
      0.12493359      0.00023499      0.55964897
      0.24999999      0.12500000      0.25000015
      0.37499999     -0.00000000      0.30181600
      0.37466866      0.24961700      0.38856035
      0.37529087      0.25055200      0.47344991
      0.37528613      0.24928331      0.56163842
      0.24999999      0.37499999      0.25000015
      0.37499999      0.24999999      0.30181600
      0.37468261      0.50003714      0.38711688
      0.37268839      0.49857374      0.47367645
      0.36646459      0.49278988      0.56358426
      0.24999999      0.62499998      0.25000015
      0.37499999      0.49999998      0.30181600
      0.37484043      0.75040567      0.38871587
      0.37411528      0.75105094      0.47264025
      0.36949650      0.75570866      0.56447672
      0.24999999      0.87499997      0.25000015
      0.37499999      0.74999997      0.30181600
      0.37474929      0.00022649      0.38702335
      0.37570653     -0.00015942      0.47551880
      0.37554521      0.00170996      0.55994631
      0.49999998      0.12500000      0.25000015
      0.62499998      0.00000000      0.30181600
      0.62499611      0.24957809      0.38846502
      0.62406210      0.24992057      0.47315998
      0.62499172      0.25633100      0.56103843
      0.49999998      0.37499999      0.25000015
      0.62499998      0.24999999      0.30181600
      0.62518945      0.49995436      0.38708239
      0.62769152      0.49738586      0.47347239
      0.49999998      0.62499998      0.25000015
      0.62499998      0.49999998      0.30181600
      0.62505030      0.75052322      0.38866868
      0.62625102      0.75217757      0.47212261
      0.63226352      0.75822975      0.56472220
      0.49999998      0.87499997      0.25000015
      0.62499998      0.74999997      0.30181600
      0.62493155      0.00034811      0.38692680
      0.62425497      0.00028922      0.47554960
      0.62498856      0.00444315      0.55985990
      0.74999997      0.12500000      0.25000015
      0.87499997     -0.00000000      0.30181600
      0.87543566      0.24962498      0.38873675
      0.87528277      0.24997628      0.47281198
      0.87442569      0.25095412      0.56135648
      0.74999997      0.37499999      0.25000015
      0.87499997      0.24999999      0.30181600
      0.87547586      0.50016100      0.38694756
      0.87535418      0.50108191      0.47490084
      0.86954638      0.50016521      0.55956089
      0.74999997      0.62499998      0.25000015
      0.87499997      0.49999998      0.30181600
      0.87532916      0.75049819      0.38859887
      0.87460407      0.74984554      0.47345113
      0.87593761      0.74974613      0.56153292
      0.74999997      0.87499997      0.25000015
      0.87499997      0.74999997      0.30181600
      0.87530297      0.00013211      0.38723739
      0.87472986      0.00002737      0.47508415
      0.87461054      0.00074088      0.55965442
      0.50476301      0.62206665      0.52168876
