
1.0
     15.00000000      0.00000000      0.00000000
      0.00000000     15.00000000      0.00000000
      0.00000000      0.00000000     15.00000000
    H     O     Cu
    12     6     1
Direct
      0.39429820      0.52031691      0.36647545
      0.60279913      0.37094291      0.42348103
      0.68666867      0.53061925      0.52464786
      0.50246741      0.46725688      0.67444481
      0.44339775      0.66712932      0.51088829
      0.33091433      0.39407363      0.51959951
      0.66926432      0.57612432      0.43371705
      0.55546364      0.39119301      0.62616445
      0.50931617      0.32445761      0.42132505
      0.48834036      0.54470412      0.32712536
      0.50272190      0.65418297      0.59520614
      0.31410958      0.49196358      0.54794550
      0.45365850      0.54226026      0.38216613
      0.54296552      0.37269777      0.44907311
      0.64408760      0.53314666      0.47553173
      0.53775869      0.45372991      0.62139499
      0.46648360      0.62204475      0.55175890
      0.35592423      0.45398640      0.51560959
      0.49951223      0.49608410      0.49974274
