1.0
     15.00000000      0.00000000      0.00000000
      0.00000000     15.00000000      0.00000000
      0.00000000      0.00000000     15.00000000
    H     O     Cl    Cu
     8     4     2     1
Direct
      0.44110599      0.46790938      0.70449063
      0.58664039      0.55164955      0.30484490
      0.39920048      0.61548529      0.56146818
      0.63960160      0.55985042      0.54981838
      0.62855245      0.48908441      0.37677235
      0.38342345      0.45053265      0.61989468
      0.35658079      0.56779738      0.48010927
      0.60812699      0.59920419      0.45980980
      0.41343314      0.49786467      0.65413266
      0.62731941      0.55136042      0.35524939
      0.40819203      0.60456187      0.49772031
      0.59105872      0.59529862      0.52435142
      0.37660232      0.41329173      0.46988145
      0.60508930      0.39717624      0.49617907
      0.49601576      0.49681880      0.50375053
