
1.0
     15.00000000      0.00000000      0.00000000
      0.00000000     15.00000000      0.00000000
      0.00000000      0.00000000     15.00000000
    H     O     Cl    Cu
    10     5     1     1
Direct
      0.51459987      0.44178253      0.31945194
      0.36938471      0.61764657      0.48272822
      0.51213776      0.61530270      0.67572312
      0.54634636      0.34214338      0.51296273
      0.62899765      0.61657443      0.49141672
      0.44185264      0.53919891      0.67289969
      0.42978013      0.64569375      0.40313014
      0.42754750      0.41067090      0.36767726
      0.54919283      0.37381530      0.61169901
      0.65979262      0.51718152      0.50063685
      0.48847949      0.43097692      0.37787858
      0.43128645      0.63129534      0.46650349
      0.50201178      0.55518814      0.65335129
      0.56465661      0.39157408      0.55109065
      0.61352882      0.55551092      0.47555453
      0.35665426      0.45781457      0.54182936
      0.49074137      0.50846746      0.50908407
