1.0
     15.00000000      0.00000000      0.00000000
      0.00000000     15.00000000      0.00000000
      0.00000000      0.00000000     15.00000000
    H     O     Cl    Cu
     8     4     2     1
Direct
      0.56711084      0.51497583      0.35158390
      0.60191437      0.63455892      0.51543824
      0.43290405      0.48508188      0.64846495
      0.48074253      0.31981691      0.44177948
      0.52427120      0.43542524      0.65802331
      0.51927479      0.68025064      0.55816676
      0.47572103      0.56456643      0.34194083
      0.39806130      0.36538842      0.48453627
      0.50232095      0.50688643      0.35590507
      0.54206640      0.65723074      0.50197751
      0.49769810      0.49312710      0.64409497
      0.45792031      0.34274696      0.49798979
      0.35201259      0.52010226      0.50779037
      0.64797068      0.47986425      0.49219707
      0.49998419      0.49997551      0.49999454
