1.0
     12.43583700      0.00000000      0.00000000
      0.00000000     11.72462000      0.00000000
      0.00000000      0.00000000     30.00000000
    Cu    Au
    23    48
Direct
      1.00510513      0.74823745      0.42565455
      0.33836807      0.50431285      0.42628889
      0.81902662      0.17903156      0.54540112
      0.50553078      0.62759557      0.46751069
      0.67184128      1.04396709      0.51489184
      0.65703792      0.26735227      0.50992186
      0.81701937      0.15116085      0.46710461
      0.66171407      1.02405350      0.42579759
      0.51106801      0.39374830      0.46831630
      0.66242581      0.25995102      0.42471669
      0.33850871      1.04546314      0.52447904
      0.51975073      0.38386134      0.54951605
      0.51989836      0.16527009      0.55832505
      0.84216313      0.96103767      0.54737630
      0.16249470      0.85015990      0.46826332
     -0.02002838      1.08330249      0.51436485
     -0.02109079      0.85637721      0.49920705
      0.66176557      0.50509309      0.42466213
      0.99996219      0.54996185      0.52154085
      0.80736768      0.92780973      0.46687819
      0.10962614      0.73686041      0.54296545
      0.17636651      0.38318130      0.46963923
      0.99573105      0.24616024      0.42662979
      0.16666700      0.37499999      0.38218597
      0.00000000      0.99999997      0.33333373
      0.00000000      0.49999998      0.33333373
      0.00000000      0.24999999      0.33333373
      0.16666700      0.87499997      0.38218597
      0.16666700      0.62499998      0.38218597
      0.50000000      0.62499998      0.38218597
      0.33333333      0.74999997      0.33333373
      0.14815458      0.19316958      0.56526718
      0.66666667      0.49999998      0.33333373
      0.83333300      0.87499997      0.38218597
      0.83333300      0.62499998      0.38218597
      0.66666667      0.24999999      0.33333373
      0.66666667      0.99999997      0.33333373
      0.83333300      0.37499999      0.38218597
      0.83333300      0.12500000      0.38218597
      1.00000000      0.74999997      0.33333373
      0.33333333      0.49999998      0.33333373
      0.50000000      0.87499997      0.38218597
      0.66666667      0.74999997      0.33333373
      0.33333333      0.24999999      0.33333373
      0.33333333      0.99999997      0.33333373
      0.50000000      0.37499999      0.38218597
      0.50000000      0.12500000      0.38218597
      0.50492067      0.69243367      0.55063194
      0.16704153      0.43906309      0.55277610
     -0.00987688      0.30998524      0.51424492
      0.16460181      0.14564766      0.47443632
      0.99838865      0.99897424      0.43285597
      0.14124874      0.96031925      0.54533916
      0.17696644      0.61514733      0.47702653
      1.00051918      0.49165303      0.43465751
      0.34357707      0.27429163      0.52872023
      0.50457029      0.14119048      0.47367270
      0.32653522      0.99770064      0.43654630
      0.33665751      0.26760054      0.43218668
      0.16666700      0.12500000      0.38218597
      0.50715365      0.94209179      0.56346677
      0.36459093      0.51853508      0.51701027
      0.31559597      0.81009333      0.52840758
      0.51476467      0.88809650      0.47424356
      0.33978614      0.74572963      0.43372740
      0.80691844      0.39145009      0.47542107
      0.90227364      0.73221900      0.56103464
      0.65612374      0.53217400      0.51608868
      0.69697820      0.80536334      0.52740193
      0.84485580      0.64890681      0.47624453
      0.67029046      0.75208160      0.43177935
