
1.0
     11.72462000      0.00000000      0.00000000
      0.00000000     10.15381800      0.00000000
      0.00000000      0.00000000     40.00000000
    Cu    Au
    31    64
Direct
      0.61339163      0.91560918      0.36304585
      0.36120338      0.38209586      0.52267543
      0.37766121      0.56878621      0.41933179
      0.25040557      0.46929458      0.47244939
      0.36830978      0.92981116      0.36449996
      0.32236160      0.72409216      0.46426505
      0.38278288      0.96372663      0.52309024
      0.48863886      0.01171887      0.47012328
      0.76272002      0.31722183      0.42021285
      0.61663435      0.39712928      0.52258923
      0.74571766      0.66342445      0.36416147
      0.12699770      0.08435414      0.41506665
      0.62947993      0.78931497      0.46750595
      0.60494326      0.95447838      0.51899161
      1.00616881      0.15813909      0.36567098
      0.89543836      0.08640284      0.41963345
      0.97639996      0.19830937      0.52413434
      0.99387116      0.30936207      0.41858634
      0.87127816      0.24372392      0.47083444
      0.75013829      0.47037594      0.47013920
      0.88857388      0.92357122      0.36401831
      0.48797568      0.32313936      0.41900220
      0.24597621      0.15621915      0.36426979
      0.25711335      0.16328976      0.52177354
      0.12608398      0.93004991      0.36394972
      0.23820184      0.85545897      0.41482964
      0.11200397      0.76394366      0.47370340
      0.48265672      0.16349862      0.36382302
      0.36677526      0.08285960      0.41514640
      0.37699213      0.23640287      0.47105121
      0.49342255      0.17620051      0.52106790
      0.24999999      0.50000002      0.30983183
      0.49999998      0.83333303      0.25000034
      0.37499999      0.58333302      0.25000034
      0.37499999      0.25000001      0.30983183
      0.49999998      0.33333334      0.25000034
      0.24999999      0.00000000      0.30983183
      0.37499999      0.08333300      0.25000034
      0.12500000      0.75000003      0.30983183
      0.24999999      0.83333303      0.25000034
      0.00000000      0.50000002      0.30983183
      0.12500000      0.58333302      0.25000034
      0.12500000      0.25000001      0.30983183
      0.24999999      0.33333334      0.25000034
      0.00000000      0.00000000      0.30983183
      0.12500000      0.08333300      0.25000034
      0.87499997      0.75000003      0.30983183
      0.87499997      0.25000001      0.30983183
      0.37499999      0.75000003      0.30983183
      0.62499998      0.08333300      0.25000034
      0.49999998      0.00000000      0.30983183
      0.74999997      0.33333334      0.25000034
      0.62499998      0.25000001      0.30983183
      0.62499998      0.58333302      0.25000034
      0.99999997      0.83333303      0.25000034
      0.49999998      0.50000002      0.30983183
      0.74999997      0.50000002      0.30983183
      0.74999997      0.83333303      0.25000034
      0.62499998      0.75000003      0.30983183
      0.87499997      0.08333300      0.25000034
      0.74999997      0.00000000      0.30983183
      0.99999997      0.33333334      0.25000034
      0.87499997      0.58333302      0.25000034
      0.75089995      0.84424060      0.41221951
      0.50463750      0.67194459      0.36703298
      0.37763738      0.41193441      0.36669730
      0.47826124      0.73777072      0.51301004
      0.25682116     -0.00513929      0.46832862
      0.46714354      0.83507654      0.42155740
      0.76358096      0.14917096      0.36856171
      0.59857313      0.07713363      0.41456716
      0.15962987      0.90048294      0.52841931
      0.73897547      0.17350482      0.52766270
      0.62683613      0.40012306      0.36993550
      0.61703261      0.25325058      0.46829554
      0.61944468      0.58531601      0.42373839
      0.47983387      0.49547386      0.47584346
      0.70231577      0.63837020      0.51811816
      0.25752390      0.63618595      0.52349765
      0.86777369      0.75742824      0.47669852
      0.99471476      0.47833437      0.47045676
      0.14312143      0.59655761      0.42453432
      0.25637820      0.68109506      0.36767001
      0.13305234      0.39250731      0.52961723
      0.75158047      0.01035356      0.47015401
      0.11550325      0.23078112      0.47172006
      0.87521016      0.40867612      0.36771098
      0.25386689      0.31292935      0.41975323
      0.11998372      0.41041221      0.36843886
      0.85707127      0.42076040      0.52793567
      0.99911031      0.67562024      0.36727020
      0.86165859      0.58672314      0.42000398
      0.01397390      0.65195246      0.52638156
      0.99048408     -0.00073051      0.48196342
      1.00789129      0.85734287      0.41946695
