1.0
      9.72154100      0.00000000      0.00000000
      0.00000000     11.72462000      0.00000000
      0.00000000      0.00000000     30.00000000
    Cu    Au
    15    32
Direct
      0.13585205     -0.00074425      0.41049165
      0.06653388      0.87652015      0.47429739
      0.32757869      0.86116458      0.44922301
      0.13468252      0.75034924      0.40831228
      0.26743859      0.50037980      0.51713750
      0.33618694      0.62873367      0.45012167
      0.85214784      0.49518994      0.44662392
      0.12701650      0.50116485      0.40874557
      0.76029389      0.37098826      0.50778036
      0.53838691      0.26112532      0.48577648
      0.85031526      0.25679165      0.44652123
      0.63464200      0.37609200      0.41434749
      0.84484947     -0.00375334      0.44700533
      0.34367040      0.12390592      0.44591814
      0.25318567      0.00015603      0.50534526
      0.68181800      0.00000000      0.33333301
      0.40909100      0.49999998      0.37499494
      0.90909100      0.87499997      0.37499494
      0.18181800      0.12500000      0.33333301
      0.40909100      0.00000000      0.37499494
      0.90909100      0.12500000      0.37499494
      0.40909100      0.74999997      0.37499494
      0.68181800      0.24999999      0.33333301
      0.18181800      0.87499997      0.33333301
      0.18181800      0.37499999      0.33333301
      0.40909100      0.24999999      0.37499494
      0.68181800      0.74999997      0.33333301
      0.90909100      0.37499999      0.37499494
      0.90909100      0.62499998      0.37499494
      0.68181800      0.49999998      0.33333301
      0.18181800      0.62499998      0.33333301
      0.76757074      0.89804316      0.52153946
      0.53641838      0.74737176      0.49291079
      0.85060365      0.75314744      0.45402874
      0.62538989      0.87787037      0.41592293
      0.78855173      0.59666086      0.52091804
      0.07851555      0.62905606      0.48199723
      0.53736370      0.49803524      0.49604854
      0.62929601      0.61600349      0.41621347
      0.27492846      0.22747051      0.52006321
      0.04230456      0.38040242      0.49196164
      0.33383883      0.37993234      0.45069342
      0.12570011      0.24488218      0.41440612
      0.75074161      0.14039048      0.51325537
      0.03304090      0.11051614      0.48855805
      0.51531713      0.99922545      0.49373671
      0.63085011      0.13400861      0.41778352
