
1.0
     11.72462000      0.00000000      0.00000000
      0.00000000     11.72462000      0.00000000
      0.00000000      0.00000000     30.00000000
    Cu    Au
    31    64
Direct
      0.63224767      0.73979598      0.52762722
      0.51832998      0.35922603      0.59240634
      0.50066410      0.64176715      0.58934243
      0.76859369      0.12247472      0.58476264
      0.64912375      0.99929352      0.63856568
      0.75151073      0.37865137      0.46551235
      0.75140865      0.37622978      0.59013292
      0.66096489      0.23346735      0.63860403
      0.74787721      0.62174367      0.46692093
      0.75025925      0.63111049      0.58985156
      0.76013419      0.12906730      0.46380534
     -0.00557597      0.12220983      0.46296398
      0.88131724      1.00601196      0.51975981
      0.87395092      0.23910167      0.52318271
     -0.00616320      0.35996257      0.58116846
      0.87717996      0.25686027      0.63691831
     -0.00277300      0.63855005      0.58553115
      0.88406009      0.49979890      0.63002052
     -0.00397025      0.87233175      0.46444064
      0.87267715      0.73772782      0.52572553
      0.87441043      0.74389805      0.64080900
      0.25081056      0.87214561      0.46130579
      0.25490845      0.12263676      0.46312643
      0.23823708      0.11191839      0.58341939
      0.23256124      0.37065190      0.58520300
      0.11607157      0.24749605      0.63775267
      0.24710624      0.62696181      0.46481795
      0.12680228      0.75484465      0.52084533
      0.23835081      0.87965396      0.58517511
      0.36179927      1.00111745      0.52694948
      0.35618683      0.99941167      0.63704098
      0.74999997      0.37499999      0.33333355
      0.62499998      0.24999999      0.40242084
      0.99999997      0.12500000      0.33333355
      0.49999998      0.37499999      0.33333355
      0.74999997      0.87499997      0.33333355
      0.87499997      0.49999998      0.40242084
      0.74999997      0.62499998      0.33333355
      0.12500000      0.99999997      0.40242084
      0.99999997      0.37499999      0.33333355
      0.62499998      0.99999997      0.40242084
      0.62499998      0.49999998      0.40242084
      0.49999998      0.12500000      0.33333355
      0.12500000      0.24999999      0.40242084
      0.99999997      0.62499998      0.33333355
      0.12500000      0.49999998      0.40242084
      0.87499997      0.24999999      0.40242084
      0.87499997      0.74999997      0.40242084
      0.99999997      0.87499997      0.33333355
      0.12500000      0.74999997      0.40242084
      0.87499997      0.99999997      0.40242084
      0.24999999      0.12500000      0.33333355
      0.49999998      0.62499998      0.33333355
      0.37499999      0.74999997      0.40242084
      0.37499999      0.99999997      0.40242084
      0.24999999      0.87499997      0.33333355
      0.74999997      0.12500000      0.33333355
      0.62499998      0.74999997      0.40242084
      0.24999999      0.37499999      0.33333355
      0.37499999      0.49999998      0.40242084
      0.49999998      0.87499997      0.33333355
      0.24999999      0.62499998      0.33333355
      0.37499999      0.24999999      0.40242084
      0.37736790      0.49023709      0.63778338
      0.13059862      0.99320953      0.51659927
      0.13067022      1.00655217      0.64936090
      0.25344105      0.38021882      0.46774378
      0.12466565      0.24004414      0.52345903
      0.12162855      0.50674087      0.52933121
      0.23056627      0.64276887      0.59182090
      0.10384653      0.48067085      0.64329607
      0.10163491      0.76099291      0.65440296
      0.49559517      0.12494386      0.46868015
      0.50655903      0.12452313      0.59364928
      0.50601626      0.37628984      0.46977643
      0.36917601      0.24399828      0.53257267
      0.34399091      0.24524407      0.64285605
      0.50193194      0.62742484      0.46949468
      0.37651734      0.50092811      0.53671344
      0.00121709      0.86907120      0.57914481
      0.50017938      0.87711148      0.47105334
      0.35487983      0.75512776      0.52586760
      0.50003653      0.88177682      0.58312555
      0.37370180      0.76575080      0.64891200
      0.64345628      1.01336645      0.52596807
      0.64797214      0.25539821      0.52858209
      0.62521135      0.50703368      0.53631732
      0.75826936      0.86484483      0.46964554
      0.76084829      0.86690340      0.58173576
      0.63084945      0.75378891      0.64798702
     -0.00595091      0.12067526      0.58367779
      0.87269948      1.00166643      0.65057504
     -0.01186239      0.37201283      0.46858837
     -0.00270007      0.63326192      0.46792414
      0.86599067      0.50276829      0.53192743
