
1.0
     12.43583700      0.00000000      0.00000000
      0.00000000     11.72462000      0.00000000
      0.00000000      0.00000000     30.00000000
    Cu    Au
    23    48
Direct
      1.00336844      0.74557301      0.42544034
      0.33913772      0.50424708      0.42703755
      0.81394967      0.22196780      0.54287082
      0.51007555      0.62902955      0.46688593
      0.84871040      0.46569420      0.55117820
      0.67772100      1.05528716      0.51658121
      0.64692240      0.27836241      0.50734900
      0.80583096      0.16105489      0.46603673
      0.65992105      1.02658404      0.42553240
      0.50383937      0.40121132      0.46873455
      0.65669141      0.26193057      0.42353347
      0.32819365      1.05618233      0.52681509
      0.52111058      0.39585357      0.55134730
      0.52137656      0.17784954      0.55872004
      0.15339734      0.84439255      0.46869121
     -0.04685823      1.07917288      0.51217940
     -0.04120227      0.84667331      0.50309307
      0.66062293      0.50484777      0.42511254
      1.01567207      0.54399094      0.51977728
      0.81207447      0.94987494      0.46700681
      0.10471422      0.73849191      0.54135074
      0.17641778      0.38549475      0.46972552
      0.99056276      0.25017253      0.42730676
      0.16666700      0.37499999      0.38218597
      0.00000000      0.99999997      0.33333373
      0.00000000      0.49999998      0.33333373
      0.00000000      0.24999999      0.33333373
      0.16666700      0.87499997      0.38218597
      0.16666700      0.62499998      0.38218597
      0.50000000      0.62499998      0.38218597
      0.33333333      0.74999997      0.33333373
      0.16297062      0.19112394      0.56532495
      0.66666667      0.49999998      0.33333373
      0.83333300      0.87499997      0.38218597
      0.83333300      0.62499998      0.38218597
      0.66666667      0.24999999      0.33333373
      0.66666667      0.99999997      0.33333373
      0.83333300      0.37499999      0.38218597
      0.83333300      0.12500000      0.38218597
      1.00000000      0.74999997      0.33333373
      0.33333333      0.49999998      0.33333373
      0.50000000      0.87499997      0.38218597
      0.66666667      0.74999997      0.33333373
      0.33333333      0.24999999      0.33333373
      0.33333333      0.99999997      0.33333373
      0.50000000      0.37499999      0.38218597
      0.50000000      0.12500000      0.38218597
      0.51789084      0.71329740      0.54693453
      0.17990569      0.43732011      0.55371195
     -0.00337857      0.31068089      0.51746955
      0.15211473      0.15007354      0.47429703
      1.00229493      0.99073722      0.43341676
      0.12562112      0.96378294      0.54147314
      0.18404659      0.61601983      0.47687479
      1.00332058      0.49368105      0.43336208
      0.35040170      0.28579960      0.52637373
      0.50082059      0.13682525      0.47454506
      0.32119942      0.99847690      0.43941000
      0.33407412      0.26503760      0.43192893
      0.16666700      0.12500000      0.38218597
      0.50694907      0.95680736      0.56104834
      0.37136087      0.53577604      0.52035665
      0.31362559      0.82111032      0.52785118
      0.51935621      0.88701209      0.47383440
      0.34119196      0.74899963      0.43377195
      0.80856396      0.38808604      0.47263606
      0.89897253      0.69136970      0.56387301
      0.66018178      0.53547861      0.51728345
      0.72008731      0.82411320      0.52612995
      0.84882193      0.64624026      0.47568547
      0.67417216      0.75173573      0.43235078
