
1.0
     11.72461960      0.00000000      0.00000000
      0.00000000     10.15381840      0.00000000
      0.00000000      0.00000000     40.00000000
    Cu    Au
    32    64
Direct
      0.61025595      0.92293176      0.36344178
      0.38895821      0.37713043      0.52035524
      0.36663702      0.59027107      0.41918752
      0.25534804      0.49025518      0.47343238
      0.36756615      0.92962607      0.36433677
      0.35493650      0.74914563      0.46900567
      0.38367387      0.92440826      0.52047052
      0.49559851      0.00105045      0.47093334
      0.75676792      0.31840693      0.42101688
      0.61031785      0.44253073      0.52194558
      0.75362391      0.65781090      0.36428300
      0.12857577      0.09185015      0.41588001
      0.62171906      0.77051591      0.46901728
      0.61176353      0.92280360      0.52049039
      1.00706464      0.15762274      0.36618550
      0.89424025      0.09128218      0.41994310
      0.97879425      0.19720381      0.52426302
      0.99457304      0.31660203      0.42089160
      0.86856221      0.25021119      0.47153691
      0.74606553      0.49157650      0.47187096
      0.88911437      0.92381740      0.36394944
      0.83863508      0.90922751      0.52292240
      0.49432827      0.32945120      0.41923544
      0.24661422      0.16221557      0.36451985
      0.27790874      0.15922822      0.52141409
      0.13227114      0.93513138      0.36453351
      0.24578356      0.84845064      0.41659247
      0.12869767      0.77597914      0.47210622
      0.48228472      0.16523734      0.36343830
      0.36672070      0.08521829      0.41401050
      0.39041335      0.23063899      0.46990734
      0.49923370      0.14901037      0.52094087
      0.25000000      0.50000000      0.30983183
      0.50000000      0.83333300      0.25000034
      0.37500000      0.58333300      0.25000034
      0.37500000      0.25000000      0.30983183
      0.50000000      0.33333333      0.25000034
      0.25000000      0.00000000      0.30983183
      0.37500000      0.08333300      0.25000034
      0.12500000      0.75000000      0.30983183
      0.25000000      0.83333300      0.25000034
      0.00000000      0.50000000      0.30983183
      0.12500000      0.58333300      0.25000034
      0.12500000      0.25000000      0.30983183
      0.25000000      0.33333333      0.25000034
      0.00000000      0.00000000      0.30983183
      0.12500000      0.08333300      0.25000034
      0.87500000      0.75000000      0.30983183
      0.87500000      0.25000000      0.30983183
      0.37500000      0.75000000      0.30983183
      0.62500000      0.08333300      0.25000034
      0.50000000      0.00000000      0.30983183
      0.75000000      0.33333333      0.25000034
      0.62500000      0.25000000      0.30983183
      0.62500000      0.58333300      0.25000034
      1.00000000      0.83333300      0.25000034
      0.50000000      0.50000000      0.30983183
      0.75000000      0.50000000      0.30983183
      0.75000000      0.83333300      0.25000034
      0.62500000      0.75000000      0.30983183
      0.87500000      0.08333300      0.25000034
      0.75000000      0.00000000      0.30983183
      1.00000000      0.33333333      0.25000034
      0.87500000      0.58333300      0.25000034
      0.74756886      0.84328339      0.41062451
      0.50320586      0.67123690      0.36659142
      0.37751012      0.41595967      0.36751747
      0.49240990      0.69403896      0.52137412
      0.26187642      0.00284294      0.46770193
      0.47875191      0.84208807      0.41945560
      0.76303717      0.14654817      0.36868655
      0.59636297      0.09391969      0.41571740
      0.15072686      0.93470051      0.52824006
      0.74302436      0.14753508      0.52944736
      0.62735884      0.39962794      0.36905230
      0.62279815      0.26557670      0.47305198
      0.63241560      0.58868271      0.42079393
      0.48104572      0.50168502      0.46999331
      0.73431657      0.66901627      0.52364202
      0.24628058      0.66516877      0.52323125
      0.86722994      0.75650696      0.46890956
      1.00427158      0.48852895      0.47950952
      0.13253051      0.59259658      0.42503430
      0.24993376      0.68190419      0.36762624
      0.16556001      0.39263148      0.52950668
      0.73892595      0.00937773      0.46774833
      0.11851200      0.23711930      0.47307313
      0.87646070      0.40075950      0.36736451
      0.25901344      0.32046347      0.42185375
      0.12157948      0.40635650      0.36910972
      0.83852730      0.40565901      0.52730650
      0.99546119      0.67366566      0.36732642
      0.87716558      0.56132772      0.42164597
     -0.00017717      0.70868932      0.52573626
      0.98718136      0.00759356      0.47843789
      1.01377689      0.86204900      0.41785665
