
1.0
     12.43583700      0.00000000      0.00000000
      0.00000000     11.72461960      0.00000000
      0.00000000      0.00000000     30.00000000
    Cu    Au
    24    48
Direct
      1.00566109      0.75044125      0.42582175
      0.33846417      0.50586020      0.42599421
      0.81879285      0.19465079      0.54364502
      0.50522589      0.62774921      0.46695253
      0.84761331      0.49485920      0.54646542
      0.66771497      1.04450831      0.51576288
      0.65071385      0.26557873      0.50988317
      0.81242963      0.13509250      0.46763174
      0.66101545      1.02163889      0.42545933
      0.50978402      0.39355061      0.46838377
      0.66083695      0.25459295      0.42448548
      0.33344151      1.05029491      0.52569118
      0.51969772      0.38485044      0.55036570
      0.51536607      0.16616757      0.55876582
      0.84379860      0.97589899      0.54357415
      0.16076214      0.85497068      0.46856151
     -0.01711408      1.10038762      0.51400540
     -0.02458041      0.85482881      0.50098197
      0.66244591      0.50030117      0.42428188
      1.01963273      0.56040524      0.52106868
      0.80370184      0.91653290      0.46616408
      0.11382608      0.74325389      0.54316517
      0.17634638      0.38994913      0.47047328
      0.98937872      0.24963655      0.43167966
      0.16666700      0.37500000      0.38218597
      0.00000000      1.00000000      0.33333373
      0.00000000      0.50000000      0.33333373
      0.00000000      0.25000000      0.33333373
      0.16666700      0.87500000      0.38218597
      0.16666700      0.62500000      0.38218597
      0.50000000      0.62500000      0.38218597
      0.33333333      0.75000000      0.33333373
      0.15027653      0.19645152      0.56571734
      0.66666667      0.50000000      0.33333373
      0.83333300      0.87500000      0.38218597
      0.83333300      0.62500000      0.38218597
      0.66666667      0.25000000      0.33333373
      0.66666667      1.00000000      0.33333373
      0.83333300      0.37500000      0.38218597
      0.83333300      0.12500000      0.38218597
      1.00000000      0.75000000      0.33333373
      0.33333333      0.50000000      0.33333373
      0.50000000      0.87500000      0.38218597
      0.66666667      0.75000000      0.33333373
      0.33333333      0.25000000      0.33333373
      0.33333333      1.00000000      0.33333373
      0.50000000      0.37500000      0.38218597
      0.50000000      0.12500000      0.38218597
      0.50772273      0.69653054      0.54925132
      0.17718427      0.44135166      0.55510835
     -0.01053915      0.32843520      0.52242765
      0.16375746      0.15379145      0.47402693
      0.99680915      1.00031027      0.43448472
      0.13604838      0.96558925      0.54500460
      0.18511962      0.62256030      0.47626099
      1.00115629      0.49318138      0.43510045
      0.34410376      0.27764799      0.52809701
      0.50032102      0.13817507      0.47384850
      0.32530695      0.99982313      0.43732793
      0.33621296      0.27032369      0.43198795
      0.16666700      0.12500000      0.38218597
      0.50399889      0.94381271      0.56329582
      0.36812428      0.52162750      0.51733257
      0.31624667      0.81726651      0.52819061
      0.51902315      0.88629356      0.47432439
      0.34216040      0.75115443      0.43296803
      0.80630279      0.37476780      0.47366383
      0.90402914      0.71972294      0.56296489
      0.65532095      0.52857770      0.51472807
      0.70204806      0.81041343      0.53098742
      0.84924854      0.65202280      0.47617270
      0.67083787      0.74631895      0.43232524
