
1.0
      9.72154098      0.00000000      0.00000000
      0.00000000     11.72461960      0.00000000
      0.00000000      0.00000000     30.00000000
    Cu    Au
    16    32
Direct
      0.12802842     -0.00331313      0.40888504
      0.26137239      0.76077337      0.50770347
      0.06574304      0.87559238      0.47508924
      0.33551959      0.87654796      0.44534451
      0.13454328      0.75053473      0.40862131
      0.28831447      0.53363754      0.51583831
      0.33623542      0.62806225      0.44566613
      0.85072514      0.49346257      0.44737923
      0.12814173      0.50037075      0.40831707
      0.77447296      0.37032733      0.51059602
      0.55188746      0.26127098      0.48511753
      0.85241732      0.25705228      0.44711837
      0.63419851      0.37450666      0.41294291
      0.85081810     -0.00367040      0.44822480
      0.32856500      0.11524514      0.44458376
      0.25495345     -0.01770689      0.51034049
      0.68181800      0.00000000      0.33333301
      0.40909100      0.50000000      0.37499494
      0.90909100      0.87500000      0.37499494
      0.18181800      0.12500000      0.33333301
      0.40909100      0.00000000      0.37499494
      0.90909100      0.12500000      0.37499494
      0.40909100      0.75000000      0.37499494
      0.68181800      0.25000000      0.33333301
      0.18181800      0.87500000      0.33333301
      0.18181800      0.37500000      0.33333301
      0.40909100      0.25000000      0.37499494
      0.68181800      0.75000000      0.33333301
      0.90909100      0.37500000      0.37499494
      0.90909100      0.62500000      0.37499494
      0.68181800      0.50000000      0.33333301
      0.18181800      0.62500000      0.33333301
      0.75194765      0.89476202      0.52087910
      0.52788619      0.74352809      0.49506975
      0.84843735      0.75532939      0.45358077
      0.62277391      0.88052512      0.41853810
      0.78769120      0.60122071      0.52134587
      0.06794043      0.62244328      0.48187900
      0.54991258      0.49050786      0.49354283
      0.62948483      0.61860140      0.41594205
      0.30204250      0.20829996      0.52115508
      0.05165585      0.37798342      0.49174962
      0.33133877      0.37907815      0.45454579
      0.12671049      0.24753654      0.41352660
      0.76560549      0.13891945      0.51450098
      0.04794728      0.11055985      0.48769205
      0.51432447      1.01821082      0.49595522
      0.63312804      0.13339459      0.41732930
