
1.0
      9.72154100      0.00000000      0.00000000
      0.00000000     11.72462000      0.00000000
      0.00000000      0.00000000     30.00000000
    Cu    Au
    15    32
Direct
      0.12812157     -0.00057307      0.40858810
      0.25413682      0.76627436      0.50426912
      0.05983611      0.88262454      0.47472281
      0.33555798      0.87876889      0.44418519
      0.13527539      0.74986686      0.41054256
      0.33643980      0.62242915      0.44828516
      0.84921310      0.49258741      0.44682547
      0.12778481      0.50020639      0.40695174
      0.76220156      0.36742865      0.50928368
      0.53899177      0.26304815      0.48245042
      0.84421653      0.25542009      0.44556362
      0.63189704      0.37513007      0.41203410
      0.84902680     -0.00104860      0.44728738
      0.33020634      0.11637174      0.44445798
      0.25193118     -0.01481123      0.50926927
      0.68181800      0.00000000      0.33333301
      0.40909100      0.49999998      0.37499494
      0.90909100      0.87499997      0.37499494
      0.18181800      0.12500000      0.33333301
      0.40909100      0.00000000      0.37499494
      0.90909100      0.12500000      0.37499494
      0.40909100      0.74999997      0.37499494
      0.68181800      0.24999999      0.33333301
      0.18181800      0.87499997      0.33333301
      0.18181800      0.37499999      0.33333301
      0.40909100      0.24999999      0.37499494
      0.68181800      0.74999997      0.33333301
      0.90909100      0.37499999      0.37499494
      0.90909100      0.62499998      0.37499494
      0.68181800      0.49999998      0.33333301
      0.18181800      0.62499998      0.33333301
      0.75634329      0.89399972      0.51892677
      0.52508199      0.74638457      0.49373981
      0.85702881      0.74994336      0.45407091
      0.62735581      0.87889119      0.41799439
      0.78981243      0.59671991      0.52105165
      0.07823690      0.60864564      0.48178908
      0.54810716      0.49358449      0.49016919
      0.63056495      0.62127616      0.41509893
      0.29647447      0.20958696      0.52042422
      0.03556616      0.36860049      0.49214086
      0.31403979      0.39292522      0.45906572
      0.12873766      0.24792265      0.41382028
      0.75600278      0.13944704      0.51336936
      0.04186259      0.11303809      0.48828346
      0.51234907      1.01329934      0.49561246
      0.63007628      0.13153275      0.41685381
