
1.0
     11.72461960      0.00000000      0.00000000
      0.00000000     11.72461960      0.00000000
      0.00000000      0.00000000     30.00000000
    Cu    Au
    32    64
Direct
      0.63314820      0.74339791      0.52581975
      0.51533306      0.35839428      0.58656121
      0.50100612      0.64469047      0.58492327
      0.75849427      0.13211667      0.59181647
      0.64610213      0.97792956      0.64151736
      0.75324331      0.37862776      0.46475566
      0.76521956      0.36875190      0.58299150
      0.65687292      0.27799309      0.64066832
      0.74915022      0.62559511      0.46568057
      0.76043784      0.63689525      0.58447617
      0.63735383      0.50150429      0.62849247
      0.76139418      0.12734151      0.46341228
     -0.00484543      0.12226984      0.46338848
      0.88277785      1.00602268      0.52048001
      0.87330989      0.23732153      0.52335169
     -0.00977987      0.36232698      0.58032560
      0.87863571      0.26780231      0.63968579
     -0.00573967      0.63600135      0.58588064
      0.86528449      0.50003949      0.63222755
     -0.00239635      0.87332965      0.46428344
      0.87807528      0.74318535      0.52401770
      0.87368073      0.74343462      0.64183374
      0.24996633      0.87228197      0.46215766
      0.25339319      0.12271443      0.46401877
      0.23379960      0.11025273      0.58435900
      0.23384967      0.38205380      0.58782090
      0.11673914      0.25045453      0.63653237
      0.24743501      0.62705509      0.46482007
      0.12621080      0.75407368      0.52230394
      0.23715601      0.87690611      0.58610948
      0.35883680      1.00010447      0.52763289
      0.35973706      1.00141180      0.63533959
      0.75000000      0.37500000      0.33333355
      0.62500000      0.25000000      0.40242084
      1.00000000      0.12500000      0.33333355
      0.50000000      0.37500000      0.33333355
      0.75000000      0.87500000      0.33333355
      0.87500000      0.50000000      0.40242084
      0.75000000      0.62500000      0.33333355
      0.12500000      1.00000000      0.40242084
      1.00000000      0.37500000      0.33333355
      0.62500000      1.00000000      0.40242084
      0.62500000      0.50000000      0.40242084
      0.50000000      0.12500000      0.33333355
      0.12500000      0.25000000      0.40242084
      1.00000000      0.62500000      0.33333355
      0.12500000      0.50000000      0.40242084
      0.87500000      0.25000000      0.40242084
      0.87500000      0.75000000      0.40242084
      1.00000000      0.87500000      0.33333355
      0.12500000      0.75000000      0.40242084
      0.87500000      1.00000000      0.40242084
      0.25000000      0.12500000      0.33333355
      0.50000000      0.62500000      0.33333355
      0.37500000      0.75000000      0.40242084
      0.37500000      1.00000000      0.40242084
      0.25000000      0.87500000      0.33333355
      0.75000000      0.12500000      0.33333355
      0.62500000      0.75000000      0.40242084
      0.25000000      0.37500000      0.33333355
      0.37500000      0.50000000      0.40242084
      0.50000000      0.87500000      0.33333355
      0.25000000      0.62500000      0.33333355
      0.37500000      0.25000000      0.40242084
      0.40416375      0.49308873      0.63914404
      0.12834561      0.99361458      0.51766392
      0.13023708      1.00390642      0.64946068
      0.25238415      0.37647587      0.46816123
      0.12415921      0.23977852      0.52612516
      0.12229228      0.50758893      0.52919913
      0.23510301      0.63022172      0.59476410
      0.08642312      0.48128804      0.64414632
      0.10252190      0.75545975      0.65388540
      0.49368258      0.12339448      0.46922423
      0.52381407      0.12853072      0.59906748
      0.50338873      0.37520976      0.46948469
      0.36929009      0.23922772      0.53507720
      0.34543508      0.24665194      0.64046562
      0.50050274      0.62921192      0.46925938
      0.37579359      0.50002269      0.53502507
      0.00140459      0.86893063      0.58048532
      0.49866334      0.87836312      0.47198130
      0.35229712      0.75379797      0.52710893
      0.50201192      0.88308644      0.58234884
      0.37571320      0.76738083      0.64760408
      0.64663832      1.01593543      0.52722191
      0.64750123      0.25313422      0.52598240
      0.63009145      0.50787540      0.53276059
      0.75795967      0.86867024      0.46907725
      0.76100887      0.86535851      0.58138048
      0.63361840      0.73433470      0.64667890
     -0.01450938      0.12270100      0.58618208
      0.86991219      0.99311468      0.65139210
     -0.00863962      0.36855022      0.46828504
      0.00121908      0.63450756      0.46700856
      0.87092260      0.50593350      0.52817457
