
1.0
     11.72461960      0.00000000      0.00000000
      0.00000000     11.72461960      0.00000000
      0.00000000      0.00000000     40.00000000
    Cu    Au
    48    79
Direct
      0.24777630      0.12183612      0.34484798
      0.25526897      0.13263085      0.43100109
      0.24480657      0.11751844      0.51750350
      0.24771306      0.37799511      0.34477662
      0.25596630      0.36839371      0.43110866
      0.24357561      0.38235373      0.51750458
      0.24771306      0.62200489      0.34477662
      0.25596630      0.63160629      0.43110866
      0.24357560      0.61764627      0.51750458
      0.24777630      0.87816388      0.34484798
      0.25526897      0.86736915      0.43100109
      0.24480657      0.88248156      0.51750350
      0.50178461      0.12172442      0.34478672
      0.49535353      0.13318439      0.43105685
      0.50504541      0.11632012      0.51747977
      0.50207723      0.37814020      0.34469722
      0.49479509      0.36765984      0.43090325
      0.51103405      0.38751073      0.51890258
      0.50207723      0.62185980      0.34469722
      0.49479509      0.63234016      0.43090325
      0.51103405      0.61248927      0.51890258
      0.50178461      0.87827558      0.34478672
      0.49535353      0.86681562      0.43105685
      0.50504541      0.88367988      0.51747977
      0.74821539      0.12172442      0.34478672
      0.75464647      0.13318438      0.43105685
      0.74495459      0.11632012      0.51747977
      0.74792277      0.37814020      0.34469722
      0.75520491      0.36765984      0.43090325
      0.73896595      0.38751073      0.51890258
      0.74792277      0.62185980      0.34469722
      0.75520491      0.63234016      0.43090325
      0.73896595      0.61248927      0.51890258
      0.74821539      0.87827558      0.34478672
      0.75464647      0.86681561      0.43105685
      0.74495459      0.88367988      0.51747977
      1.00222370      0.12183612      0.34484798
      0.99473103      0.13263085      0.43100109
      1.00519343      0.11751844      0.51750350
      1.00228694      0.37799511      0.34477662
      0.99403370      0.36839371      0.43110866
      1.00642439      0.38235373      0.51750458
      1.00228694      0.62200489      0.34477662
      0.99403370      0.63160629      0.43110866
      1.00642439      0.61764627      0.51750458
      1.00222370      0.87816388      0.34484798
      0.99473103      0.86736915      0.43100109
      1.00519343      0.88248156      0.51750350
      0.00000000      0.12500000      0.25000015
      0.12500000      0.00000000      0.30181600
      0.12500000      0.25033621      0.38767351
      0.12500000      0.25017586      0.47443490
      0.12500000      0.24974492      0.55973205
      0.00000000      0.37500000      0.25000015
      0.12500000      0.25000000      0.30181600
      0.12500000      0.50000000      0.39059423
      0.12500000      0.50000000      0.47051800
      0.12500000      0.50000000      0.56360420
      0.00000000      0.62500000      0.25000015
      0.12500000      0.50000000      0.30181600
      0.12500000      0.74966379      0.38767351
      0.12500000      0.74982414      0.47443490
      0.12500000      0.75025508      0.55973205
      0.00000000      0.87500000      0.25000015
      0.12500000      0.75000000      0.30181600
      0.12500000      0.00000000      0.39056753
      0.12500000      0.00000000      0.47043552
      0.12500000      0.00000000      0.56310406
      0.25000000      0.12500000      0.25000015
      0.37500000      0.00000000      0.30181600
      0.37492288      0.25002235      0.38530930
      0.37554762      0.25059488      0.47753325
      0.37678667      0.25176307      0.55680322
      0.25000000      0.37500000      0.25000015
      0.37500000      0.25000000      0.30181600
      0.37510141      0.50000000      0.38828953
      0.37623445      0.50000000      0.47391926
      0.37420027      0.50000000      0.55976229
      0.25000000      0.62500000      0.25000015
      0.37500000      0.50000000      0.30181600
      0.37492288      0.74997765      0.38530930
      0.37554762      0.74940512      0.47753325
      0.37678667      0.74823693      0.55680322
      0.25000000      0.87500000      0.25000015
      0.37500000      0.75000000      0.30181600
      0.37520143      0.00000000      0.38864434
      0.37518573      0.00000000      0.47318927
      0.37476714      0.00000000      0.56080204
      0.50000000      0.12500000      0.25000015
      0.62500000      0.00000000      0.30181600
      0.62500000      0.25008580      0.38731605
      0.62500000      0.25096089      0.47499108
      0.62500000      0.24858780      0.55884331
      0.50000000      0.37500000      0.25000015
      0.62500000      0.25000000      0.30181600
      0.62500000      0.50000000      0.39057852
      0.62500000      0.50000000      0.47057929
      0.50000000      0.62500000      0.25000015
      0.62500000      0.50000000      0.30181600
      0.62500000      0.74991420      0.38731605
      0.62500000      0.74903911      0.47499108
      0.62500000      0.75141220      0.55884331
      0.50000000      0.87500000      0.25000015
      0.62500000      0.75000000      0.30181600
      0.62500000      0.00000000      0.39056858
      0.62500000      0.00000000      0.47046049
      0.62500000      0.00000000      0.56363293
      0.75000000      0.12500000      0.25000015
      0.87500000      0.00000000      0.30181600
      0.87507712      0.25002235      0.38530930
      0.87445238      0.25059488      0.47753325
      0.87321333      0.25176307      0.55680322
      0.75000000      0.37500000      0.25000015
      0.87500000      0.25000000      0.30181600
      0.87489859      0.50000000      0.38828953
      0.87376555      0.50000000      0.47391926
      0.87579973      0.50000000      0.55976229
      0.75000000      0.62500000      0.25000015
      0.87500000      0.50000000      0.30181600
      0.87507712      0.74997765      0.38530930
      0.87445238      0.74940512      0.47753325
      0.87321333      0.74823693      0.55680322
      0.75000000      0.87500000      0.25000015
      0.87500000      0.75000000      0.30181600
      0.87479857      0.00000000      0.38864434
      0.87481427      0.00000000      0.47318927
      0.87523286      0.00000000      0.56080204
