
1.0
     11.72461960      0.00000000      0.00000000
      0.00000000     11.72461960      0.00000000
      0.00000000      0.00000000     30.00000000
    Cu    Au
    64    32
Direct
      0.25000001      0.12499999      0.45942910
      0.12499999      1.00000000      0.50391391
      0.24999997      0.12499998      0.55007074
      0.12499985      0.99999999      0.59499161
      0.25000001      0.37500000      0.45942910
      0.12499999      0.24999999      0.50391391
      0.24999997      0.37499999      0.55007074
      0.12499985      0.24999998      0.59499161
      0.25000001      0.62500001      0.45942910
      0.12499999      0.50000000      0.50391392
      0.24999997      0.62500002      0.55007074
      0.12499985      0.50000001      0.59499161
      0.25000001      0.87500000      0.45942910
      0.12499999      0.75000001      0.50391391
      0.24999997      0.87500001      0.55007074
      0.12499985      0.75000002      0.59499161
      0.49999999      0.12499999      0.45942910
      0.37500000      1.00000000      0.50391393
      0.50000005      0.12499998      0.55007073
      0.37500003      0.99999999      0.59499161
      0.49999999      0.37500000      0.45942910
      0.37500000      0.24999999      0.50391393
      0.50000005      0.37499999      0.55007073
      0.37500003      0.24999998      0.59499160
      0.49999999      0.62500001      0.45942910
      0.37500000      0.50000000      0.50391393
      0.50000005      0.62500002      0.55007073
      0.37500003      0.50000001      0.59499160
      0.49999999      0.87500000      0.45942910
      0.37500000      0.75000001      0.50391393
      0.50000005      0.87500001      0.55007073
      0.37500003      0.75000002      0.59499161
      0.74999999      0.12499999      0.45942909
      0.62500001      1.00000000      0.50391390
      0.75000003      0.12499998      0.55007070
      0.62500015      0.99999999      0.59499162
      0.74999999      0.37500000      0.45942909
      0.62500001      0.24999999      0.50391391
      0.75000003      0.37499999      0.55007070
      0.62500015      0.24999998      0.59499161
      0.74999999      0.62500001      0.45942909
      0.62500001      0.50000000      0.50391391
      0.75000003      0.62500002      0.55007070
      0.62500015      0.50000001      0.59499161
      0.74999999      0.87500000      0.45942908
      0.62500001      0.75000001      0.50391390
      0.75000003      0.87500001      0.55007070
      0.62500015      0.75000002      0.59499162
      1.00000001      0.12499999      0.45942909
      0.87500000      1.00000000      0.50391389
     -0.00000005      0.12499998      0.55007071
      0.87499997      0.99999999      0.59499162
      1.00000001      0.37500000      0.45942909
      0.87500000      0.24999999      0.50391389
     -0.00000005      0.37499999      0.55007071
      0.87499997      0.24999998      0.59499162
      1.00000001      0.62500001      0.45942909
      0.87500000      0.50000000      0.50391389
     -0.00000005      0.62500002      0.55007071
      0.87499997      0.50000001      0.59499161
      1.00000001      0.87500000      0.45942909
      0.87500000      0.75000001      0.50391389
     -0.00000005      0.87500001      0.55007070
      0.87499997      0.75000002      0.59499162
      1.00000000      0.12500000      0.33333355
      0.12500000      1.00000000      0.40242084
      1.00000000      0.37500000      0.33333355
      0.12500000      0.25000000      0.40242084
      1.00000000      0.62500000      0.33333355
      0.12500000      0.50000000      0.40242084
      1.00000000      0.87500000      0.33333355
      0.12500000      0.75000000      0.40242084
      0.25000000      0.12500000      0.33333355
      0.37500000      1.00000000      0.40242084
      0.25000000      0.37500000      0.33333355
      0.37500000      0.25000000      0.40242084
      0.25000000      0.62500000      0.33333355
      0.37500000      0.50000000      0.40242084
      0.25000000      0.87500000      0.33333355
      0.37500000      0.75000000      0.40242084
      0.50000000      0.12500000      0.33333355
      0.62500000      1.00000000      0.40242084
      0.50000000      0.37500000      0.33333355
      0.62500000      0.25000000      0.40242084
      0.50000000      0.62500000      0.33333355
      0.62500000      0.50000000      0.40242084
      0.50000000      0.87500000      0.33333355
      0.62500000      0.75000000      0.40242084
      0.75000000      0.12500000      0.33333355
      0.87500000      1.00000000      0.40242084
      0.75000000      0.37500000      0.33333355
      0.87500000      0.25000000      0.40242084
      0.75000000      0.62500000      0.33333355
      0.87500000      0.50000000      0.40242084
      0.75000000      0.87500000      0.33333355
      0.87500000      0.75000000      0.40242084
