1.0
     11.72462000      0.00000000      0.00000000
      0.00000000     11.72462000      0.00000000
      0.00000000      0.00000000     40.00000000
    Cu    Au
    63    32
Direct
      0.25035782      0.12778623      0.45990757
      0.12421647      1.00000000      0.50320016
      0.24807636      0.12165037      0.54964026
      0.12122864      1.00000000      0.59491375
      0.24945665      0.37469012      0.45913293
      0.12819981      0.25424058      0.50552057
      0.25950473      0.38413674      0.55380560
      0.12792710      0.25412482      0.59377372
      0.24945665      0.62530984      0.45913293
      0.12794987      0.49999999      0.50634154
      0.25950473      0.61586324      0.55380560
      0.11192856      0.49999999      0.59449916
      0.25035782      0.87221374      0.45990757
      0.12819981      0.74575938      0.50552057
      0.24807635      0.87834962      0.54964026
      0.12792711      0.74587515      0.59377372
      0.49964212      0.12778625      0.45990756
      0.37499998      0.99999999      0.50292615
      0.50192352      0.12165041      0.54964028
      0.37499993      0.99999999      0.59524263
      0.50054331      0.37469008      0.45913293
      0.37499995      0.25349354      0.50590930
      0.49049522      0.38413669      0.55380561
      0.37499988      0.23793724      0.59478892
      0.50054331      0.62530988      0.45913293
      0.37500001      0.49999999      0.50217859
      0.49049522      0.61586329      0.55380561
      0.49964212      0.87221371      0.45990757
      0.37499995      0.74650642      0.50590930
      0.50192353      0.87834958      0.54964028
      0.37499988      0.76206275      0.59478892
      0.74806521      0.12693064      0.45943844
      0.62578334      1.00000000      0.50320015
      0.74955672      0.12692282      0.54940960
      0.62877128      1.00000000      0.59491375
      0.74681065      0.37633952      0.45972319
      0.62180015      0.25424056      0.50552057
      0.75537660      0.37266893      0.54980694
      0.62207294      0.25412478      0.59377370
      0.74681066      0.62366045      0.45972319
      0.62205002      0.49999999      0.50634154
      0.75537661      0.62733105      0.54980694
      0.63807139      0.49999999      0.59449916
      0.74806520      0.87306933      0.45943845
      0.62180015      0.74575940      0.50552057
      0.74955671      0.87307716      0.54940960
      0.62207294      0.74587519      0.59377371
      1.00193474      0.12693068      0.45943843
      0.87500004      0.99999999      0.50309142
      0.00044320      0.12692293      0.54940964
      0.87499996      0.99999999      0.59355672
      1.00318930      0.37633950      0.45972319
      0.87499996      0.25009928      0.50247477
     -0.00537668      0.37266886      0.54980697
      0.87499979      0.24564022      0.59602126
      1.00318929      0.62366047      0.45972319
      0.87500002      0.49999999      0.50275829
     -0.00537669      0.62733112      0.54980697
      0.87499995      0.49999999      0.59602546
      1.00193475      0.87306929      0.45943844
      0.87499996      0.74990070      0.50247477
      0.00044321      0.87307706      0.54940964
      0.87499979      0.75435977      0.59602125
      0.99999997      0.12500000      0.33333355
      0.12500000      0.99999997      0.40242084
      0.99999997      0.37499999      0.33333355
      0.12500000      0.24999999      0.40242084
      0.99999997      0.62499998      0.33333355
      0.12500000      0.49999998      0.40242084
      0.99999997      0.87499997      0.33333355
      0.12500000      0.74999997      0.40242084
      0.24999999      0.12500000      0.33333355
      0.37499999      0.99999997      0.40242084
      0.24999999      0.37499999      0.33333355
      0.37499999      0.24999999      0.40242084
      0.24999999      0.62499998      0.33333355
      0.37499999      0.49999998      0.40242084
      0.24999999      0.87499997      0.33333355
      0.37499999      0.74999997      0.40242084
      0.49999998      0.12500000      0.33333355
      0.62499998      0.99999997      0.40242084
      0.49999998      0.37499999      0.33333355
      0.62499998      0.24999999      0.40242084
      0.49999998      0.62499998      0.33333355
      0.62499998      0.49999998      0.40242084
      0.49999998      0.87499997      0.33333355
      0.62499998      0.74999997      0.40242084
      0.74999997      0.12500000      0.33333355
      0.87499997      0.99999997      0.40242084
      0.74999997      0.37499999      0.33333355
      0.87499997      0.24999999      0.40242084
      0.74999997      0.62499998      0.33333355
      0.87499997      0.49999998      0.40242084
      0.74999997      0.87499997      0.33333355
      0.87499997      0.74999997      0.40242084
