1.0
     11.72462000      0.00000000      0.00000000
      0.00000000     11.72462000      0.00000000
      0.00000000      0.00000000     30.00000000
    Cu    Au
    23    72
Direct
      0.51042497      0.10045062      0.58784188
      0.62339746      0.98997340      0.64560957
      0.76451896      0.11100304      0.58667452
      0.74972639      0.38416890      0.59388287
      0.38940900      0.75054652      0.64957215
      0.36104880      0.74549353      0.53061208
      0.75461379      0.63055143      0.46641981
      0.50561582      0.62807962      0.59337070
      0.75239353      0.86382791      0.46662567
      0.64023881      0.74494384      0.52617929
      0.40085406      0.98748204      0.64572476
      0.36728887      0.99567363      0.53202525
      0.87398539      0.99387794      0.52850672
      0.24934502      0.87142450      0.46790031
      0.24151406      0.11129115      0.59678035
      0.11062444      0.98884839      0.64948317
      0.87666061      0.26036445      0.53702674
      0.86823847      0.74409464      0.52649371
      0.12360670      0.50094570      0.53435516
      0.00181114      0.37745028      0.59569362
      0.87288134      0.76639255      0.65403877
     -0.00544249      0.62594245      0.46616639
      0.86004305      0.25124798      0.64116755
      0.99999997      0.62499998      0.33333355
     -0.00149421      0.12898047      0.47312352
      0.24999999      0.12500000      0.33333355
      0.12500000      0.74999997      0.40242084
      0.99999997      0.87499997      0.33333355
      0.12500000      0.49999998      0.40242084
      0.12500000      0.24999999      0.40242084
      0.99999997      0.37499999      0.33333355
     -0.00897513      0.87112557      0.46940128
     -0.01010490      0.87450654      0.59069472
      0.12500000      0.99999997      0.40242084
      0.99999997      0.12500000      0.33333355
      0.49999998      0.62499998      0.33333355
      0.87499997      0.74999997      0.40242084
      0.74999997      0.87499997      0.33333355
      0.87499997      0.49999998      0.40242084
      0.74999997      0.62499998      0.33333355
      0.87499997      0.24999999      0.40242084
      0.74999997      0.37499999      0.33333355
      0.87499997      0.99999997      0.40242084
      0.74999997      0.12500000      0.33333355
      0.62499998      0.74999997      0.40242084
      0.49999998      0.87499997      0.33333355
      0.62499998      0.49999998      0.40242084
      0.37499999      0.99999997      0.40242084
      0.62499998      0.24999999      0.40242084
      0.49999998      0.37499999      0.33333355
      0.62499998      0.99999997      0.40242084
      0.49999998      0.12500000      0.33333355
      0.37499999      0.74999997      0.40242084
      0.24999999      0.87499997      0.33333355
      0.37499999      0.49999998      0.40242084
      0.24999999      0.62499998      0.33333355
      0.37499999      0.24999999      0.40242084
      0.24999999      0.37499999      0.33333355
      0.25443178      0.87701169      0.59810291
      0.38502997      0.52356755      0.66110347
      0.37300576      0.50388330      0.53628651
      0.50293752      0.62970644      0.47049666
      0.39192852      0.20712912      0.65029573
      0.50455263      0.37976631      0.59951916
      0.37457451      0.23641400      0.54027876
      0.49984034      0.37268730      0.47141223
      0.49941725      0.12277090      0.47131210
      0.10944970      0.76192727      0.66356078
      0.48761775      0.87015161      0.47294501
      0.11816464      0.74158231      0.52926924
      0.11974960      0.50624053      0.66374217
      0.24691700      0.63069026      0.59690703
      0.24655487      0.62446018      0.46904594
      0.24396659      0.36554882      0.60673351
      0.12504237      0.25997600      0.53749024
      0.25090351      0.37555801      0.47145916
      0.13211865      0.99411399      0.53139471
      0.63088736      0.50571261      0.66169484
     -0.00411913      0.62419973      0.59753684
      0.88059462      0.50747986      0.53117399
      0.00362399      0.38085369      0.47061962
      0.85733666      1.01102423      0.65737465
      0.00110296      0.13074794      0.59614095
      0.25252385      0.12084869      0.46991706
      0.61727303      0.75713773      0.65912934
      0.75225337      0.86902078      0.58996967
      0.87491514      0.47404691      0.65890721
      0.75328843      0.63091068      0.59665309
      0.62979205      0.50945150      0.53318946
      0.64023275      0.21726817      0.64792455
      0.63668995      0.24898305      0.53808088
      0.75312436      0.37728328      0.47000542
      0.63710444      0.99191240      0.52751220
      0.75903362      0.12653047      0.47037038
      0.49900733      0.85953066      0.58389029
