
1.0
     11.72462000      0.00000000      0.00000000
      0.00000000     11.72462000      0.00000000
      0.00000000      0.00000000     30.00000000
    Cu    Au
    23    72
Direct
      0.50263490      0.10066064      0.58653189
      0.60405912      0.98404065      0.64695287
      0.76544662      0.11550527      0.58335188
      0.75100760      0.38302575      0.59271899
      0.37818393      0.76024485      0.64949709
      0.36669750      0.74400618      0.52860561
      0.75902241      0.63266785      0.46776950
      0.50722750      0.63347046      0.59035055
      0.75384687      0.86325440      0.46695908
      0.64396875      0.74742549      0.52781491
      0.38231805      0.98689253      0.64386561
      0.36991046      0.99485005      0.52848013
      0.87743427      0.98685456      0.53055255
      0.24886679      0.86994583      0.46826050
      0.25441320      0.10782811      0.58774717
      0.15020460      1.00668707      0.64709855
      0.87763779      0.26087088      0.53634176
      0.86766615      0.74989227      0.52988141
      0.12369170      0.50022570      0.53485536
     -0.00483605      0.37179027      0.59451053
     -0.00642707      0.62529157      0.46596160
      0.14302529      0.23258462      0.64316305
      0.86043174      0.25160793      0.64121559
      0.99999997      0.62499998      0.33333355
     -0.00241890      0.13008947      0.47274466
      0.24999999      0.12500000      0.33333355
      0.12500000      0.74999997      0.40242084
      0.99999997      0.87499997      0.33333355
      0.12500000      0.49999998      0.40242084
      0.12500000      0.24999999      0.40242084
      0.99999997      0.37499999      0.33333355
     -0.01026983      0.86836239      0.46910151
     -0.00957833      0.87680113      0.60289257
      0.12500000      0.99999997      0.40242084
      0.99999997      0.12500000      0.33333355
      0.49999998      0.62499998      0.33333355
      0.87499997      0.74999997      0.40242084
      0.74999997      0.87499997      0.33333355
      0.87499997      0.49999998      0.40242084
      0.74999997      0.62499998      0.33333355
      0.87499997      0.24999999      0.40242084
      0.74999997      0.37499999      0.33333355
      0.87499997      0.99999997      0.40242084
      0.74999997      0.12500000      0.33333355
      0.62499998      0.74999997      0.40242084
      0.49999998      0.87499997      0.33333355
      0.62499998      0.49999998      0.40242084
      0.37499999      0.99999997      0.40242084
      0.62499998      0.24999999      0.40242084
      0.49999998      0.37499999      0.33333355
      0.62499998      0.99999997      0.40242084
      0.49999998      0.12500000      0.33333355
      0.37499999      0.74999997      0.40242084
      0.24999999      0.87499997      0.33333355
      0.37499999      0.49999998      0.40242084
      0.24999999      0.62499998      0.33333355
      0.37499999      0.24999999      0.40242084
      0.24999999      0.37499999      0.33333355
      0.25595807      0.87065364      0.58840863
      0.39791583      0.53550756      0.65925685
      0.37983226      0.51022410      0.53454040
      0.50729203      0.63084757      0.47006561
      0.37880264      0.20708783      0.64940509
      0.51007478      0.37656520      0.59977840
      0.37987511      0.24162034      0.53626289
      0.50320538      0.37533540      0.47045072
      0.50204671      0.12123805      0.47048627
      0.15112822      0.77804677      0.66484583
      0.49251472      0.87019712      0.47182971
      0.10411363      0.73617063      0.53194886
      0.11031938      0.46260632      0.66193921
      0.24240063      0.62555324      0.59731157
      0.24291496      0.62823287      0.46991706
      0.26208449      0.38207461      0.59955507
      0.12444199      0.25770773      0.53842575
      0.25060928      0.37770766      0.47155415
      0.12266939      0.99102734      0.53014667
      0.63608214      0.50339720      0.66178951
     -0.00131600      0.63366799      0.60838233
      0.88947719      0.51439613      0.53464542
      0.00363714      0.38234091      0.47165411
      0.82477826      1.03348875      0.66021383
     -0.00577063      0.11906428      0.59608311
      0.25099400      0.12023051      0.47001448
      0.60183109      0.74937041      0.65825030
      0.75505384      0.87069959      0.59529659
      0.87142337      0.46961837      0.65994410
      0.75862709      0.63486492      0.59862844
      0.63556056      0.51248391      0.53353689
      0.63665011      0.20921446      0.64706223
      0.63613063      0.24954654      0.53671131
      0.75720115      0.38048951      0.47089836
      0.64092529      0.98941768      0.52825690
      0.76013371      0.12558781      0.47084884
      0.49900497      0.86275517      0.58356979
