
1.0
     11.72461960      0.00000000      0.00000000
      0.00000000     11.72461960      0.00000000
      0.00000000      0.00000000     30.00000000
    Cu    Au
    24    72
Direct
      0.50751530      0.10520436      0.58888482
      0.62241983      0.99004255      0.64566417
      0.75617217      0.11120928      0.58745988
      0.75062305      0.37768180      0.59374343
      0.39229037      0.75483183      0.65007073
      0.35974172      0.74917080      0.53085058
      0.75551123      0.63045041      0.46677379
      0.51207337      0.63229331      0.59379349
      0.75123875      0.86445604      0.46674471
      0.64028292      0.74494174      0.52678760
      0.39971246      0.99009342      0.64573913
      0.36958125      0.99491714      0.53098575
      0.87035619      0.99006118      0.52782304
      0.24981915      0.86909649      0.46755265
      0.25109668      0.10465478      0.59149192
      0.11607719      1.00677167      0.64589736
      0.87125924      0.26031006      0.53431870
      0.86699787      0.74401872      0.52635622
      0.12372542      0.50080040      0.53594300
     -0.01108896      0.36782652      0.59413201
      0.87206030      0.77064113      0.65507778
     -0.00585361      0.62450903      0.46607878
      0.13296413      0.23128465      0.64130065
      0.86042257      0.24231704      0.64353763
      1.00000000      0.62500000      0.33333355
     -0.00129804      0.12825204      0.47377620
      0.25000000      0.12500000      0.33333355
      0.12500000      0.75000000      0.40242084
      1.00000000      0.87500000      0.33333355
      0.12500000      0.50000000      0.40242084
      0.12500000      0.25000000      0.40242084
      1.00000000      0.37500000      0.33333355
     -0.00853650      0.86884779      0.46942078
     -0.01120235      0.87366009      0.59069210
      0.12500000      1.00000000      0.40242084
      1.00000000      0.12500000      0.33333355
      0.50000000      0.62500000      0.33333355
      0.87500000      0.75000000      0.40242084
      0.75000000      0.87500000      0.33333355
      0.87500000      0.50000000      0.40242084
      0.75000000      0.62500000      0.33333355
      0.87500000      0.25000000      0.40242084
      0.75000000      0.37500000      0.33333355
      0.87500000      1.00000000      0.40242084
      0.75000000      0.12500000      0.33333355
      0.62500000      0.75000000      0.40242084
      0.50000000      0.87500000      0.33333355
      0.62500000      0.50000000      0.40242084
      0.37500000      1.00000000      0.40242084
      0.62500000      0.25000000      0.40242084
      0.50000000      0.37500000      0.33333355
      0.62500000      1.00000000      0.40242084
      0.50000000      0.12500000      0.33333355
      0.37500000      0.75000000      0.40242084
      0.25000000      0.87500000      0.33333355
      0.37500000      0.50000000      0.40242084
      0.25000000      0.62500000      0.33333355
      0.37500000      0.25000000      0.40242084
      0.25000000      0.37500000      0.33333355
      0.25533759      0.87443315      0.59764045
      0.39503027      0.53073436      0.66102202
      0.37779383      0.51501770      0.53658693
      0.50509675      0.63040130      0.47047426
      0.37619884      0.21044751      0.65023271
      0.50807683      0.37792117      0.59950328
      0.37842810      0.23891176      0.53810098
      0.50098616      0.37584933      0.47126202
      0.49942638      0.12299534      0.47009369
      0.10756229      0.77942644      0.66452436
      0.48892638      0.86973948      0.47244919
      0.11233089      0.73431146      0.53121783
      0.10418104      0.45411211      0.66356342
      0.24158478      0.63112709      0.60149308
      0.24572025      0.62678006      0.46944473
      0.25960358      0.38458914      0.60079691
      0.12810527      0.25997780      0.53830054
      0.25228823      0.37880362      0.47223722
      0.13364511      0.98803574      0.53014963
      0.63265459      0.50385542      0.66266860
     -0.00070845      0.61899613      0.60528524
      0.88612841      0.50983591      0.53317032
      0.00475324      0.38089420      0.47128716
      0.85380994      1.00961806      0.65770935
     -0.01356865      0.12337135      0.58955181
      0.25166115      0.12162362      0.46999558
      0.62032033      0.75706994      0.66003394
      0.75085020      0.86796423      0.58963363
      0.86667141      0.46373285      0.66136730
      0.75828579      0.62966245      0.59827674
      0.63371017      0.51097631      0.53394690
      0.63556471      0.21703539      0.64989203
      0.63513747      0.24906543      0.53673283
      0.75478733      0.38005179      0.47019635
      0.63436458      0.99345690      0.52762009
      0.75858678      0.12580816      0.46989090
      0.49953789      0.86171453      0.58449248
