1.0
     11.72462000      0.00000000      0.00000000
      0.00000000     11.72462000      0.00000000
      0.00000000      0.00000000     30.00000000
    Cu    Au
    15    80
Direct
      0.63719189      0.49096861      0.65286976
      0.49243021      0.88528781      0.60159737
      0.75031476      0.12306012      0.46932767
      0.62227580      0.99309796      0.65456911
      0.50059542      0.62633676      0.46971099
      0.38342937      0.25539407      0.65883805
      0.74978616      0.37270541      0.59699532
      0.75657985      0.61595743      0.59771999
      0.00027822      0.87317481      0.59951271
      0.62639065      0.74964580      0.53489959
      0.71567217      0.84508431      0.60376897
      0.12209016      0.99999755      0.53514311
      0.00156008      0.37231471      0.59941811
      0.24521775      0.37373865      0.46683750
      0.00348003      0.37344515      0.46717636
      0.99999997      0.37499999      0.33333355
      0.99999997      0.87499997      0.33333355
      0.87499997      0.74999997      0.40242084
      0.12500000      0.49999998      0.40242084
      0.99999997      0.62499998      0.33333355
      0.87476545      0.49200311      0.53615445
      0.12500000      0.24999999      0.40242084
      0.12500000      0.99999997      0.40242084
      0.99999997      0.12500000      0.33333355
      0.86264711      0.74170484      0.65911458
     -0.00007911      0.61872423      0.59867242
     -0.00377810      0.62226872      0.47023140
      0.86272267      0.49357106      0.66059568
      0.00049627      0.87608266      0.47123731
      0.86211306      0.75437640      0.54083767
      0.62499998      0.24999999      0.40242084
      0.24681267      0.12530882      0.46986437
      0.74999997      0.87499997      0.33333355
      0.87499997      0.49999998      0.40242084
      0.74999997      0.62499998      0.33333355
      0.87499997      0.24999999      0.40242084
      0.74999997      0.37499999      0.33333355
      0.87499997      0.99999997      0.40242084
      0.74999997      0.12500000      0.33333355
      0.62499998      0.74999997      0.40242084
      0.49999998      0.87499997      0.33333355
      0.62499998      0.49999998      0.40242084
      0.49999998      0.62499998      0.33333355
      0.12500000      0.74999997      0.40242084
      0.49999998      0.37499999      0.33333355
      0.62499998      0.99999997      0.40242084
      0.49999998      0.12500000      0.33333355
      0.37499999      0.74999997      0.40242084
      0.24999999      0.87499997      0.33333355
      0.37499999      0.49999998      0.40242084
      0.24999999      0.62499998      0.33333355
      0.37499999      0.24999999      0.40242084
      0.24999999      0.37499999      0.33333355
      0.37499999      0.99999997      0.40242084
      0.24999999      0.12500000      0.33333355
      0.24897584      0.87540912      0.47171223
      0.37093461      0.25437460      0.53268295
      0.49906537      0.38137827      0.46919206
      0.38430924      1.00155546      0.66801067
      0.49966555      0.12575192      0.60180657
      0.37292868      0.99961307      0.53601585
      0.50693528      0.12068048      0.47021654
      0.11317469      0.75111379      0.66651068
      0.24100682      0.88144607      0.59993348
      0.12120594      0.75325699      0.53635298
      0.50313272      0.37653559      0.59855372
      0.11364321      0.49570935      0.66741755
      0.25053800      0.62404537      0.60170000
      0.12502491      0.49119665      0.53180894
      0.25476423      0.62502526      0.46960760
      0.11854758      0.25175221      0.66745972
      0.25035048      0.37715692      0.60378184
      0.12219313      0.25284741      0.53368609
      0.11220045      0.99421105      0.66859760
      0.24905713      0.12767852      0.60280360
      0.63026060      0.24880321      0.53339693
      0.87660150      0.25120598      0.53588175
      0.85663374      0.97620192      0.65884895
      0.00305288      0.11719874      0.59990234
      0.87487221      0.99692860      0.53726030
     -0.00468180      0.12613175      0.46996217
      0.74921878      0.87911225      0.47043498
      0.62179680      0.51471144      0.53808674
      0.74243136      0.62872003      0.47129794
      0.62794040      0.26269940      0.66586667
      0.87440484      0.25549187      0.66272658
      0.75460347      0.37228184      0.46897060
      0.74654951      0.12520989      0.60136068
      0.62618148      0.98567015      0.53953274
      0.36836643      0.75990073      0.66638006
      0.39194758      0.74472945      0.53984214
      0.50173910      0.86479736      0.47113291
      0.40231317      0.51421126      0.66323932
      0.54739533      0.67172246      0.61359019
      0.37518466      0.50256320      0.53370294
