
1.0
     11.72462000      0.00000000      0.00000000
      0.00000000     11.72462000      0.00000000
      0.00000000      0.00000000     30.00000000
    Cu    Au
    15    80
Direct
      0.63196688      0.50792946      0.65456137
      0.50539904      0.86684200      0.59770144
      0.75094060      0.12392383      0.46953236
      0.62775515      0.97639995      0.65240828
      0.50018718      0.62552043      0.46910630
      0.74927369      0.37804416      0.59662570
      0.74419900      0.62670947      0.59681309
      0.00003039      0.87268454      0.59938375
      0.62658399      0.75110315      0.53578483
      0.74385235      0.86696658      0.59717451
      0.12541546      0.99978513      0.53554044
      0.00444369      0.37652964      0.59965357
      0.24594785      0.37273714      0.46753878
      0.00440443      0.37294065      0.46761729
      0.62934739      0.75685484      0.65416218
      0.99999997      0.37499999      0.33333355
      0.99999997      0.87499997      0.33333355
      0.87499997      0.74999997      0.40242084
      0.12500000      0.49999998      0.40242084
      0.99999997      0.62499998      0.33333355
      0.87502634      0.49415044      0.53705513
      0.12500000      0.24999999      0.40242084
      0.12500000      0.99999997      0.40242084
      0.99999997      0.12500000      0.33333355
      0.85504583      0.74408989      0.66014618
     -0.00164770      0.62144209      0.59968146
     -0.00325366      0.62170452      0.47011362
      0.85733105      0.49758958      0.65959823
      0.00120176      0.87746406      0.47097964
      0.86610673      0.75101833      0.53875659
      0.62499998      0.24999999      0.40242084
      0.24835377      0.12605698      0.47063321
      0.74999997      0.87499997      0.33333355
      0.87499997      0.49999998      0.40242084
      0.74999997      0.62499998      0.33333355
      0.87499997      0.24999999      0.40242084
      0.74999997      0.37499999      0.33333355
      0.87499997      0.99999997      0.40242084
      0.74999997      0.12500000      0.33333355
      0.62499998      0.74999997      0.40242084
      0.49999998      0.87499997      0.33333355
      0.62499998      0.49999998      0.40242084
      0.49999998      0.62499998      0.33333355
      0.12500000      0.74999997      0.40242084
      0.49999998      0.37499999      0.33333355
      0.62499998      0.99999997      0.40242084
      0.49999998      0.12500000      0.33333355
      0.37499999      0.74999997      0.40242084
      0.24999999      0.87499997      0.33333355
      0.37499999      0.49999998      0.40242084
      0.24999999      0.62499998      0.33333355
      0.37499999      0.24999999      0.40242084
      0.24999999      0.37499999      0.33333355
      0.37499999      0.99999997      0.40242084
      0.24999999      0.12500000      0.33333355
      0.24937333      0.87854666      0.47160638
      0.37364720      0.25191480      0.53485127
      0.49722995      0.37854840      0.46879380
      0.39834814      0.98110350      0.66432343
      0.50347076      0.13494926      0.60759755
      0.37649017      1.00076016      0.53871475
      0.50616703      0.12185497      0.47039871
      0.11044806      0.75158993      0.66675186
      0.24366460      0.87743050      0.60154845
      0.12148323      0.75438848      0.53648406
      0.50029118      0.37759749      0.60154463
      0.11540187      0.49665245      0.66743673
      0.24972397      0.62529635      0.60215693
      0.12430352      0.49119056      0.53233686
      0.25267348      0.62341151      0.46892608
      0.11742495      0.25243470      0.66731598
      0.25259899      0.37327502      0.60468670
      0.12509308      0.25202040      0.53476827
      0.11597267      0.99361628      0.66895410
      0.25784592      0.12673963      0.60692014
      0.63072382      0.24842314      0.53469554
      0.87822562      0.25228268      0.53750002
      0.86674543      0.98111308      0.66142636
      0.00850607      0.11586291      0.59968283
      0.87608239      0.99797104      0.53763631
     -0.00423448      0.12752276      0.47054845
      0.74955439      0.88041547      0.47074084
      0.62692021      0.50413591      0.53432623
      0.74230660      0.63023586      0.47062477
      0.64341673      0.28148685      0.66557201
      0.88065143      0.25793830      0.66189910
      0.75699376      0.37022652      0.46910514
      0.74721276      0.12385343      0.60332342
      0.62482017      0.99257998      0.53893072
      0.39166388      0.74739065      0.66712411
      0.38161892      0.74856090      0.53570443
      0.50332998      0.86643913      0.47097552
      0.38628698      0.50645887      0.66747503
      0.51312695      0.63223308      0.59910826
      0.37351386      0.50015415      0.53318936
