1.0
     11.72461960      0.00000000      0.00000000
      0.00000000     11.72461960      0.00000000
      0.00000000      0.00000000     30.00000000
    Cu    Au
    16    80
Direct
      0.63178793      0.50485999      0.65454625
      0.50379724      0.87103626      0.59879869
      0.75090196      0.12371987      0.46942859
      0.62687991      0.97808674      0.65406984
      0.50038811      0.62620499      0.46910443
      0.37975570      0.26123067      0.65906501
      0.74872495      0.37676072      0.59756546
      0.74366619      0.62723886      0.59740128
      0.00060803      0.87505401      0.60001565
      0.62705680      0.75263938      0.53641645
      0.74412322      0.87044458      0.59799206
      0.12464826      1.00028155      0.53628424
      0.00255057      0.37668729      0.59989553
      0.24539479      0.37355461      0.46740671
      0.00339038      0.37337698      0.46742750
      0.62978894      0.76003748      0.65430471
      1.00000000      0.37500000      0.33333355
      1.00000000      0.87500000      0.33333355
      0.87500000      0.75000000      0.40242084
      0.12500000      0.50000000      0.40242084
      1.00000000      0.62500000      0.33333355
      0.87422496      0.49497325      0.53749235
      0.12500000      0.25000000      0.40242084
      0.12500000      1.00000000      0.40242084
      1.00000000      0.12500000      0.33333355
      0.85549120      0.74599820      0.66010562
     -0.00071402      0.62232952      0.59990134
     -0.00382080      0.62239565      0.47022828
      0.85707912      0.49977630      0.65981095
      0.00116294      0.87750996      0.47129291
      0.86576881      0.75188393      0.53942879
      0.62500000      0.25000000      0.40242084
      0.24746591      0.12569327      0.47042200
      0.75000000      0.87500000      0.33333355
      0.87500000      0.50000000      0.40242084
      0.75000000      0.62500000      0.33333355
      0.87500000      0.25000000      0.40242084
      0.75000000      0.37500000      0.33333355
      0.87500000      1.00000000      0.40242084
      0.75000000      0.12500000      0.33333355
      0.62500000      0.75000000      0.40242084
      0.50000000      0.87500000      0.33333355
      0.62500000      0.50000000      0.40242084
      0.50000000      0.62500000      0.33333355
      0.12500000      0.75000000      0.40242084
      0.50000000      0.37500000      0.33333355
      0.62500000      1.00000000      0.40242084
      0.50000000      0.12500000      0.33333355
      0.37500000      0.75000000      0.40242084
      0.25000000      0.87500000      0.33333355
      0.37500000      0.50000000      0.40242084
      0.25000000      0.62500000      0.33333355
      0.37500000      0.25000000      0.40242084
      0.25000000      0.37500000      0.33333355
      0.37500000      1.00000000      0.40242084
      0.25000000      0.12500000      0.33333355
      0.24871997      0.87806960      0.47155414
      0.37270220      0.25279892      0.53385882
      0.49773030      0.37922499      0.46877690
      0.39262698      0.98996638      0.66666986
      0.50429647      0.12808063      0.60532071
      0.37561342      0.99964728      0.53777464
      0.50593120      0.12188912      0.47020445
      0.10976317      0.75316223      0.66707868
      0.24553145      0.87708836      0.60214204
      0.12168603      0.75519672      0.53695676
      0.50332114      0.37865816      0.59900308
      0.11376182      0.49715903      0.66778194
      0.25159908      0.62684869      0.60331370
      0.12309346      0.49262215      0.53206501
      0.25227362      0.62415282      0.46892582
      0.12399718      0.25285512      0.66829817
      0.24708580      0.37774267      0.60232182
      0.12303737      0.25265467      0.53400050
      0.11831436      0.99557521      0.66935473
      0.25373287      0.12539015      0.60426474
      0.63160289      0.24745974      0.53425620
      0.87738638      0.25280905      0.53732264
      0.86788519      0.98304522      0.66248460
      0.00669329      0.11899694      0.60066283
      0.87683868      0.99846297      0.53804518
     -0.00496405      0.12709957      0.47047945
      0.75003259      0.88068962      0.47089275
      0.62712197      0.50601316      0.53437648
      0.74243940      0.63107655      0.47076991
      0.63387886      0.27608582      0.66623841
      0.87962626      0.26104592      0.66234763
      0.75689230      0.37114007      0.46911015
      0.74787404      0.12463563      0.60397985
      0.62549770      0.99244348      0.53872586
      0.39417712      0.75128391      0.66711433
      0.38256676      0.74900101      0.53591040
      0.50369112      0.86639695      0.47085527
      0.38782031      0.50007438      0.66768931
      0.51332623      0.63343986      0.59994410
      0.37343488      0.50199366      0.53290111
