
1.0
     11.72462000      0.00000000      0.00000000
      0.00000000     11.72462000      0.00000000
      0.00000000      0.00000000     30.00000000
    Cu    Au
     7    88
Direct
      0.12651207      0.99946263      0.53679955
      0.62662462      1.00356405      0.66310194
      0.37336216      0.25028263      0.53679033
      0.75045578      0.87643506      0.47054955
      0.62804134      0.99683983      0.53631104
      0.87270859      0.99751360      0.53645432
      0.25036942      0.37390633      0.46948474
      0.12500000      0.49999998      0.40242084
      0.99999997      0.62499998      0.33333355
      0.12500000      0.24999999      0.40242084
      0.99999997      0.87499997      0.33333355
      0.87511806      0.24930735      0.53611727
      0.99999997      0.37499999      0.33333355
      0.12500000      0.99999997      0.40242084
      0.12500000      0.74999997      0.40242084
      0.99999997      0.12500000      0.33333355
      0.86861663      0.75521000      0.67281401
      0.00118590      0.87845611      0.60461192
      0.87302336      0.75779296      0.53664598
     -0.00557339      0.88150910      0.47260981
      0.87479207      0.50043751      0.67363113
      0.00294444      0.63200194      0.60875163
      0.87563019      0.50221968      0.53768921
      0.00030709      0.62792589      0.47070856
      0.87482054      0.24643205      0.67280074
     -0.00022810      0.37297538      0.60461799
      0.87499997      0.74999997      0.40242084
      0.49999998      0.62499998      0.33333355
      0.25217502      0.13105577      0.47151857
      0.74999997      0.87499997      0.33333355
      0.87499997      0.49999998      0.40242084
      0.74999997      0.62499998      0.33333355
      0.87499997      0.24999999      0.40242084
      0.74999997      0.37499999      0.33333355
      0.87499997      0.99999997      0.40242084
      0.74999997      0.12500000      0.33333355
      0.62499998      0.74999997      0.40242084
      0.49999998      0.87499997      0.33333355
      0.62499998      0.49999998      0.40242084
      0.24999999      0.12500000      0.33333355
      0.62499998      0.24999999      0.40242084
      0.49999998      0.37499999      0.33333355
      0.62499998      0.99999997      0.40242084
      0.49999998      0.12500000      0.33333355
      0.37499999      0.74999997      0.40242084
      0.24999999      0.87499997      0.33333355
      0.37499999      0.49999998      0.40242084
      0.24999999      0.62499998      0.33333355
      0.37499999      0.24999999      0.40242084
      0.24999999      0.37499999      0.33333355
      0.37499999      0.99999997      0.40242084
      0.12495959      0.75532224      0.53836433
      0.36978928      0.49138552      0.53655688
      0.49893492      0.62475931      0.47070730
      0.37720780      0.24614667      0.67453286
      0.49835931      0.37102416      0.60421823
      0.49055480      0.37065438      0.47100896
      0.38083230      1.00047621      0.67299523
      0.50019116      0.12430372      0.60197573
      0.37299583      1.00196680      0.53672028
      0.50075427      0.12383063      0.47199689
      0.24565776      0.87555387      0.60713825
      0.49957204      0.62399177      0.60455600
      0.24683804      0.87817853      0.47129802
      0.12466652      0.49293673      0.67353941
      0.24656123      0.62946645      0.60905906
      0.12568675      0.50205657      0.53814480
      0.24938371      0.62115395      0.47034967
      0.12404657      0.24753305      0.67336981
      0.25354104      0.37168179      0.60540211
      0.13543670      0.25422326      0.53598422
      0.12320082      1.00651162      0.67207730
      0.25067209      0.12412124      0.60225904
      0.62638165      0.23939799      0.67280460
      0.87005059      1.00227433      0.67261861
      0.00087893      0.11924533      0.59894179
      0.00236959      0.12089215      0.47370062
      0.62571859      0.76111753      0.67279931
      0.75005787      0.88304810      0.60200174
      0.62747933      0.75725946      0.53608270
      0.62436928      0.49866623      0.67349210
      0.74945540      0.62703459      0.60502843
      0.62430021      0.50030887      0.53699010
      0.75015232      0.63002367      0.47013296
      0.00562681      0.37504182      0.47017825
      0.74878437      0.37328094      0.60512923
      0.62137648      0.24739738      0.53618992
      0.74916472      0.37311198      0.46994470
      0.74993734      0.12117216      0.60060499
      0.75078124      0.10872448      0.47362127
      0.38270080      0.75320836      0.67290193
      0.50288335      0.88038553      0.60298982
      0.37345494      0.74895404      0.53796497
      0.50693871      0.87854484      0.47121138
      0.37541616      0.49983422      0.67436759
