
1.0
     11.72462000      0.00000000      0.00000000
      0.00000000     11.72462000      0.00000000
      0.00000000      0.00000000     30.00000000
    Cu    Au
     7    88
Direct
      0.12746411      1.00128198      0.53642436
      0.12283216      0.75528072      0.66286014
      0.37441378      0.24996140      0.53684934
      0.74983703      0.87680017      0.47040995
      0.62837239      0.99845529      0.53869387
      0.87024193      0.99865155      0.53734403
      0.25056388      0.37330783      0.46908246
      0.12500000      0.49999998      0.40242084
      0.99999997      0.62499998      0.33333355
      0.12500000      0.24999999      0.40242084
      0.99999997      0.87499997      0.33333355
      0.87350808      0.24729958      0.53666905
      0.99999997      0.37499999      0.33333355
      0.12500000      0.99999997      0.40242084
      0.12500000      0.74999997      0.40242084
      0.99999997      0.12500000      0.33333355
      0.88146083      0.75505792      0.67263653
     -0.00051538      0.88090201      0.60071183
      0.86934881      0.76004555      0.53588453
     -0.00593603      0.88235365      0.47247523
      0.87593246      0.50194227      0.67354212
      0.00035663      0.62857604      0.60448041
      0.87449580      0.50077573      0.53698155
     -0.00110334      0.62743302      0.47033782
      0.87541701      0.24790458      0.67288657
      0.00134515      0.37373264      0.60482742
      0.87499997      0.74999997      0.40242084
      0.49999998      0.62499998      0.33333355
      0.25325502      0.13044971      0.47175340
      0.74999997      0.87499997      0.33333355
      0.87499997      0.49999998      0.40242084
      0.74999997      0.62499998      0.33333355
      0.87499997      0.24999999      0.40242084
      0.74999997      0.37499999      0.33333355
      0.87499997      0.99999997      0.40242084
      0.74999997      0.12500000      0.33333355
      0.62499998      0.74999997      0.40242084
      0.49999998      0.87499997      0.33333355
      0.62499998      0.49999998      0.40242084
      0.24999999      0.12500000      0.33333355
      0.62499998      0.24999999      0.40242084
      0.49999998      0.37499999      0.33333355
      0.62499998      0.99999997      0.40242084
      0.49999998      0.12500000      0.33333355
      0.37499999      0.74999997      0.40242084
      0.24999999      0.87499997      0.33333355
      0.37499999      0.49999998      0.40242084
      0.24999999      0.62499998      0.33333355
      0.37499999      0.24999999      0.40242084
      0.24999999      0.37499999      0.33333355
      0.37499999      0.99999997      0.40242084
      0.12502109      0.75442679      0.53618355
      0.36974971      0.49065893      0.53631782
      0.49975275      0.62487386      0.47077225
      0.37555382      0.24718702      0.67470614
      0.49575485      0.37060487      0.60387647
      0.49142712      0.37011248      0.47130289
      0.36779188      1.00032808      0.67297057
      0.50424845      0.12089217      0.60653336
      0.37945137      1.00395534      0.53776008
      0.50154547      0.12443547      0.47196747
      0.24781333      0.87791876      0.60293817
      0.49795102      0.62466399      0.60441352
      0.24872673      0.88023055      0.47145666
      0.12407909      0.50511505      0.67383355
      0.24835165      0.62612448      0.60527193
      0.12570017      0.49914813      0.53628462
      0.25021465      0.62134845      0.46989616
      0.12359720      0.24491226      0.67305006
      0.25087975      0.37254225      0.60589215
      0.13547135      0.25328471      0.53570019
      0.12419102      0.99402730      0.67296637
      0.25165204      0.12596274      0.60203786
      0.62619683      0.25305526      0.67260946
      0.88186764      1.00267682      0.67195358
      0.00265977      0.12124113      0.59932334
      0.00183440      0.12117307      0.47367937
      0.62535481      0.74579681      0.67244815
      0.74734896      0.88327278      0.60598571
      0.62675525      0.76052634      0.53721681
      0.62411326      0.49929032      0.67365816
      0.75072649      0.62774838      0.60454731
      0.62348987      0.49979263      0.53730175
      0.74863056      0.63015435      0.47033908
      0.00400343      0.37359581      0.46984749
      0.75039547      0.37458693      0.60469513
      0.62056473      0.24407709      0.53779026
      0.74781438      0.37168763      0.47034564
      0.74862290      0.11955533      0.60412132
      0.75000963      0.10771508      0.47408254
      0.36927185      0.75303274      0.67295537
      0.50512967      0.88083783      0.60727600
      0.37640460      0.75056432      0.53714417
      0.50855893      0.87956926      0.47130046
      0.37388623      0.50094359      0.67438591
