
1.0
     11.72461960      0.00000000      0.00000000
      0.00000000     11.72461960      0.00000000
      0.00000000      0.00000000     30.00000000
    Cu    Au
     8    88
Direct
      0.12673816      1.00087268      0.53645214
      0.12274865      0.75558219      0.66308102
      0.62689182      1.00177548      0.66335777
      0.37383028      0.25023214      0.53698957
      0.75016496      0.87667955      0.47029244
      0.62812345      0.99702415      0.53661142
      0.87266737      0.99844999      0.53658353
      0.25058756      0.37332596      0.46940603
      0.12500000      0.50000000      0.40242084
      1.00000000      0.62500000      0.33333355
      0.12500000      0.25000000      0.40242084
      1.00000000      0.87500000      0.33333355
      0.87501414      0.24879138      0.53655623
      1.00000000      0.37500000      0.33333355
      0.12500000      1.00000000      0.40242084
      0.12500000      0.75000000      0.40242084
      1.00000000      0.12500000      0.33333355
      0.88085596      0.75530806      0.67296212
     -0.00025639      0.88111581      0.60134736
      0.87098492      0.75798372      0.53573703
     -0.00573085      0.88187376      0.47234494
      0.87527971      0.50132424      0.67365569
      0.00012676      0.62864300      0.60508700
      0.87446680      0.50085292      0.53751653
     -0.00052062      0.62691106      0.47040231
      0.87522954      0.24645356      0.67300524
      0.00101233      0.37322863      0.60524854
      0.87500000      0.75000000      0.40242084
      0.50000000      0.62500000      0.33333355
      0.25260614      0.13118418      0.47139696
      0.75000000      0.87500000      0.33333355
      0.87500000      0.50000000      0.40242084
      0.75000000      0.62500000      0.33333355
      0.87500000      0.25000000      0.40242084
      0.75000000      0.37500000      0.33333355
      0.87500000      1.00000000      0.40242084
      0.75000000      0.12500000      0.33333355
      0.62500000      0.75000000      0.40242084
      0.50000000      0.87500000      0.33333355
      0.62500000      0.50000000      0.40242084
      0.25000000      0.12500000      0.33333355
      0.62500000      0.25000000      0.40242084
      0.50000000      0.37500000      0.33333355
      0.62500000      1.00000000      0.40242084
      0.50000000      0.12500000      0.33333355
      0.37500000      0.75000000      0.40242084
      0.25000000      0.87500000      0.33333355
      0.37500000      0.50000000      0.40242084
      0.25000000      0.62500000      0.33333355
      0.37500000      0.25000000      0.40242084
      0.25000000      0.37500000      0.33333355
      0.37500000      1.00000000      0.40242084
      0.12519772      0.75407585      0.53661620
      0.37023697      0.49054906      0.53678687
      0.49935875      0.62413837      0.47056353
      0.37664270      0.24620240      0.67485701
      0.49776564      0.37123969      0.60475290
      0.49072506      0.37045289      0.47118072
      0.37988416      1.00005250      0.67327506
      0.50036563      0.12372677      0.60271211
      0.37453201      1.00332789      0.53672785
      0.50136632      0.12425346      0.47200730
      0.24789718      0.87827701      0.60388334
      0.49950759      0.62560241      0.60532838
      0.24769471      0.87902957      0.47113992
      0.12429861      0.50409379      0.67378582
      0.24897664      0.62628999      0.60589244
      0.12590313      0.49898172      0.53696598
      0.25007999      0.62053179      0.47008330
      0.12389226      0.24519147      0.67330578
      0.25213729      0.37160826      0.60611659
      0.13560526      0.25293845      0.53604161
      0.12363182      0.99519115      0.67277273
      0.25054725      0.12452482      0.60285510
      0.62660008      0.23941642      0.67283634
      0.87146050      1.00172918      0.67264549
      0.00203025      0.12059453      0.59986215
      0.00214044      0.12113991      0.47358814
      0.62578163      0.75997918      0.67276649
      0.75010574      0.88159310      0.60261563
      0.62708995      0.75740631      0.53608230
      0.62439277      0.49930007      0.67365636
      0.74947623      0.62835382      0.60550187
      0.62376078      0.50032965      0.53747215
      0.74938784      0.62928995      0.47001526
      0.00476561      0.37382083      0.46997791
      0.74916613      0.37363632      0.60552654
      0.62125518      0.24722665      0.53680621
      0.74855196      0.37251168      0.47015090
      0.75028500      0.12014601      0.60105959
      0.75076346      0.10876342      0.47378819
      0.37062754      0.75360304      0.67325512
      0.50266320      0.87931472      0.60369165
      0.37551302      0.74908257      0.53718924
      0.50739927      0.87890665      0.47107233
      0.37472209      0.50068165      0.67454846
