1.0
     11.72461960      0.00000000      0.00000000
      0.00000000     11.72461960      0.00000000
      0.00000000      0.00000000     30.00000000
    Cu    Au
    48    48
Direct
      0.25000000      0.12500000      0.45943037
      0.12500000     -0.00000000      0.50360745
      0.25000000      0.12500000      0.54982820
      0.25000000      0.37500000      0.45943037
      0.12500000      0.25000000      0.50360745
      0.25000000      0.37500000      0.54982820
      0.25000000      0.62500000      0.45943037
      0.12500000      0.50000000      0.50360745
      0.25000000      0.62500000      0.54982819
      0.25000000      0.87500000      0.45943037
      0.12500000      0.75000000      0.50360745
      0.25000000      0.87500000      0.54982819
      0.50000000      0.12500000      0.45943037
      0.37500000     -0.00000000      0.50360745
      0.50000000      0.12500000      0.54982819
      0.50000000      0.37500000      0.45943037
      0.37500000      0.25000000      0.50360745
      0.50000000      0.37500000      0.54982819
      0.50000000      0.62500000      0.45943037
      0.37500000      0.50000000      0.50360745
      0.50000000      0.62500000      0.54982819
      0.50000000      0.87500000      0.45943037
      0.37500000      0.75000000      0.50360745
      0.50000000      0.87500000      0.54982819
      0.75000000      0.12500000      0.45943037
      0.62500000     -0.00000000      0.50360745
      0.75000000      0.12500000      0.54982819
      0.75000000      0.37500000      0.45943037
      0.62500000      0.25000000      0.50360745
      0.75000000      0.37500000      0.54982819
      0.75000000      0.62500000      0.45943038
      0.62500000      0.50000000      0.50360745
      0.75000000      0.62500000      0.54982819
      0.75000000      0.87500000      0.45943038
      0.62500000      0.75000000      0.50360745
      0.75000000      0.87500000      0.54982819
      0.00000000      0.12500000      0.45943037
      0.87500000     -0.00000000      0.50360745
      0.00000000      0.12500000      0.54982819
      0.00000000      0.37500000      0.45943037
      0.87500000      0.25000000      0.50360745
      0.00000000      0.37500000      0.54982819
      0.00000000      0.62500000      0.45943037
      0.87500000      0.50000000      0.50360745
      0.00000000      0.62500000      0.54982819
      0.00000000      0.87500000      0.45943037
      0.87500000      0.75000000      0.50360745
      0.00000000      0.87500000      0.54982819
      0.00000000      0.12500000      0.33333355
      0.12500000      0.00000000      0.40242084
      0.00000000      0.37500000      0.33333355
      0.12500000      0.25000000      0.40242084
      0.00000000      0.62500000      0.33333355
      0.12500000      0.50000000      0.40242084
      0.00000000      0.87500000      0.33333355
      0.12500000      0.75000000      0.40242084
      0.25000000      0.12500000      0.33333355
      0.37500000      0.00000000      0.40242084
      0.25000000      0.37500000      0.33333355
      0.37500000      0.25000000      0.40242084
      0.25000000      0.62500000      0.33333355
      0.37500000      0.50000000      0.40242084
      0.25000000      0.87500000      0.33333355
      0.37500000      0.75000000      0.40242084
      0.50000000      0.12500000      0.33333355
      0.62500000      0.00000000      0.40242084
      0.50000000      0.37500000      0.33333355
      0.62500000      0.25000000      0.40242084
      0.50000000      0.62500000      0.33333355
      0.62500000      0.50000000      0.40242084
      0.50000000      0.87500000      0.33333355
      0.62500000      0.75000000      0.40242084
      0.75000000      0.12500000      0.33333355
      0.87500000      0.00000000      0.40242084
      0.75000000      0.37500000      0.33333355
      0.87500000      0.25000000      0.40242084
      0.75000000      0.62500000      0.33333355
      0.87500000      0.50000000      0.40242084
      0.75000000      0.87500000      0.33333355
      0.87500000      0.75000000      0.40242084
      0.12500000      0.00000000      0.60706396
      0.12500000      0.25000000      0.60706396
      0.12500000      0.50000000      0.60706396
      0.12500000      0.75000000      0.60706396
      0.37500000      0.00000000      0.60706396
      0.37500000      0.25000000      0.60706396
      0.37500000      0.50000000      0.60706396
      0.37500000      0.75000000      0.60706396
      0.62500000      0.00000000      0.60706396
      0.62500000      0.25000000      0.60706396
      0.62500000      0.50000000      0.60706396
      0.62500000      0.75000000      0.60706396
      0.87500000      0.75000000      0.60706396
      0.87500000      0.50000000      0.60706396
      0.87500000      0.25000000      0.60706396
      0.87500000      0.00000000      0.60706396
