1.0
     11.72462000      0.00000000      0.00000000
      0.00000000     11.72462000      0.00000000
      0.00000000      0.00000000     30.00000000
    Cu    Au
    47    48
Direct
      0.75637202      0.86845386      0.56292958
      0.38764711      0.74947271      0.60909487
      0.74803235      0.13216934      0.45880538
      0.74553379      0.15015889      0.57046717
      0.63160525      0.98323147      0.61129217
      0.74467691      0.36683859      0.45989320
      0.62306213      0.25242605      0.51135762
      0.75009486      0.37007185      0.56143659
      0.66721446      0.29010203      0.62768213
      0.74969625      0.62786845      0.45858804
      0.63859637      0.49588317      0.51186179
      0.75440904      0.62218217      0.56760656
      0.63274749      0.50598281      0.61734457
      0.75072840      0.87654323      0.46151148
      0.65064215      0.74482620      0.51256050
      0.11673622      1.01144402      0.51840050
      0.63844136      0.75121701      0.61419332
      0.01135430      0.13266142      0.46210053
     -0.00025662      0.12029044      0.57109655
      0.85046981      1.00482064      0.61452776
      0.00635376      0.36072030      0.46304973
      0.87169168      0.24472615      0.50974056
     -0.02114915      0.35963771      0.56464287
      0.00187025      0.62814298      0.45888139
     -0.02924084      0.61816563      0.57231386
      0.85593130      0.47927337      0.61853977
      0.00050441      0.87616302      0.46133185
      0.87356506      0.74703856      0.51123991
     -0.00514961      0.89354608      0.57242573
      0.86697357      0.76188335      0.61597393
      0.35600760      0.74016507      0.52446403
      0.25158926      0.12361503      0.46668995
      0.23903721      0.11608234      0.57442388
      0.12603937      0.24134272      0.52317764
      0.10390799      0.25465626      0.61681073
      0.24610078      0.62763551      0.46304898
      0.23347330      0.62929735      0.57914626
      0.22689963      0.88095723      0.57191795
      0.08988486      0.74458973      0.61649990
      0.49241508      0.12866546      0.46153249
      0.37846208      1.01792481      0.52472348
      0.40016173      0.53738635      0.61468759
      0.49701118      0.37511939      0.46497578
      0.38399764      0.23973172      0.51867060
      0.52256579      0.38271462      0.56508590
      0.52755435      0.63157239      0.56231915
      0.51764167      0.85520459      0.55980660
      0.24999999      0.87499997      0.33333355
      0.62499998      0.24999999      0.40242084
      0.49999998      0.37499999      0.33333355
      0.62499998      0.99999997      0.40242084
      0.49999998      0.12500000      0.33333355
      0.37499999      0.74999997      0.40242084
      0.62499998      0.49999998      0.40242084
      0.37499999      0.49999998      0.40242084
      0.24999999      0.62499998      0.33333355
      0.37499999      0.24999999      0.40242084
      0.24999999      0.37499999      0.33333355
      0.37499999      0.99999997      0.40242084
      0.49999998      0.62499998      0.33333355
      0.12500000      0.49999998      0.40242084
      0.49999998      0.87499997      0.33333355
      0.62499998      0.74999997      0.40242084
      0.74999997      0.12500000      0.33333355
      0.87499997      0.99999997      0.40242084
      0.74999997      0.37499999      0.33333355
      0.87499997      0.24999999      0.40242084
      0.74999997      0.62499998      0.33333355
      0.87499997      0.49999998      0.40242084
      0.74999997      0.87499997      0.33333355
      0.87499997      0.74999997      0.40242084
      0.28785638      0.34013457      0.58878185
      0.50772898      0.16489840      0.58599969
      0.47100606      0.35521324      0.65191981
      0.10582913      0.74614152      0.52132084
      0.87744288      1.00956296      0.51276604
      0.24968723      0.88402959      0.47058634
      0.09771948      0.48623747      0.62262431
      0.49867821      0.62567990      0.46800897
      0.11635554      0.49815315      0.51999153
      0.36433634      0.50328683      0.52575020
      0.88181045      0.24251881      0.62887563
      0.87218456      0.49819255      0.50878159
      0.24999999      0.12500000      0.33333355
      0.25129309      0.36164587      0.46706447
      0.62735063      1.02205214      0.51834893
      0.49439306      0.87366872      0.47067017
      0.99999997      0.12500000      0.33333355
      0.12500000      0.99999997      0.40242084
      0.99999997      0.37499999      0.33333355
      0.12500000      0.24999999      0.40242084
      0.99999997      0.62499998      0.33333355
      0.39301637      0.97308852      0.61528637
      0.99999997      0.87499997      0.33333355
      0.12500000      0.74999997      0.40242084
