
1.0
     11.72462000      0.00000000      0.00000000
      0.00000000     11.72462000      0.00000000
      0.00000000      0.00000000     30.00000000
    Cu    Au
    39    56
Direct
      0.63418874      0.52634295      0.63311827
      0.41019857      0.49917015      0.62810247
      0.50077276      0.87789682      0.46183562
      0.51786048      0.86646756      0.56772819
      0.75693193      0.12070036      0.46446344
      0.61645118      0.99951855      0.51463249
      0.75614375      0.10020689      0.56377777
      0.64286714      0.99460481      0.61891165
      0.75259965      0.37633147      0.46232226
      0.63310850      0.22608176      0.61516500
      0.75193620      0.62430412      0.46027432
      0.64064509      0.50676523      0.51200423
      0.75034507      0.63789383      0.56705645
      0.12352247      0.99921450      0.52524003
      0.62249060      0.74056108      0.51024474
      0.74553266      0.86561734      0.56157917
      0.87988199      0.98415646      0.51604707
     -0.02138131      0.11687765      0.56418006
      0.86283769      0.25990243      0.52014468
      0.00490153      0.62333458      0.46342010
      0.86489572      0.51113299      0.51498146
      0.84931788      0.54332230      0.63111878
      0.00675431      0.86854064      0.46613007
      0.87609165      0.74183640      0.51139198
     -0.00490701      0.86099086      0.56329763
      0.86173079      0.75654327      0.62347291
      0.38886806      0.98950161      0.51977868
      0.24416123      0.61731326      0.46191346
      0.12656422      0.50641148      0.52098438
      0.09041262      0.21362477      0.62162511
      0.12909358      0.73623135      0.51681544
      0.24617571      0.37454251      0.46372467
      0.49546461      0.12237116      0.46445957
      0.09558031      0.99989345      0.61635963
      0.50525170      0.10694347      0.57040748
      0.38402817      0.25651838      0.52859905
      0.52536677      0.39125166      0.57191581
      0.42137546      0.26055103      0.61865143
      0.50102649      0.61660581      0.46110172
      0.87499997      0.74999997      0.40242084
      0.26114306      0.13079550      0.47167359
      0.24999999      0.12500000      0.33333355
      0.37499999      0.74999997      0.40242084
      0.74999997      0.87499997      0.33333355
      0.12500000      0.74999997      0.40242084
      0.37499999      0.99999997      0.40242084
      0.87499997      0.49999998      0.40242084
      0.99999997      0.87499997      0.33333355
      0.24999999      0.37499999      0.33333355
      0.37499999      0.24999999      0.40242084
      0.12500000      0.49999998      0.40242084
      0.24999999      0.62499998      0.33333355
      0.37499999      0.49999998      0.40242084
      0.74999997      0.62499998      0.33333355
      0.24999999      0.87499997      0.33333355
      0.62499998      0.49999998      0.40242084
      0.87499997      0.24999999      0.40242084
      0.49999998      0.12500000      0.33333355
      0.74999997      0.37499999      0.33333355
      0.87499997      0.99999997      0.40242084
      0.62499998      0.99999997      0.40242084
      0.49999998      0.37499999      0.33333355
      0.74999997      0.12500000      0.33333355
      0.62499998      0.74999997      0.40242084
      0.62499998      0.24999999      0.40242084
      0.49999998      0.62499998      0.33333355
      0.49999998      0.87499997      0.33333355
      0.63124317      0.24072734      0.51903860
      0.27105431      0.11529523      0.58367376
      0.13400721      0.26401144      0.53026310
      0.23731417      0.37845331      0.60227473
      0.22801124      0.62092189      0.59255469
      0.24158694      0.88012759      0.46741312
      0.25117094      0.86706104      0.57782523
      0.08116987      0.78339074      0.63930130
      0.42346566      0.97966496      0.63503405
      0.49458838      0.37740157      0.46793029
      0.35126857      0.49377264      0.52588539
      0.52177086      0.62186980      0.57070411
      0.38074938      0.74184277      0.51476578
      0.40210029      0.73836084      0.63853689
      0.99999997      0.62499998      0.33333355
      0.74993944      0.39627780      0.57825728
      0.74800863      0.87520353      0.46561914
      0.64391714      0.76595602      0.63333478
     -0.00086575      0.12533470      0.47050967
      0.87111805      0.97723752      0.62449094
     -0.00155103      0.38159091      0.46858264
     -0.00838499      0.39629450      0.58662001
      0.85996513      0.21918230      0.62793618
     -0.00898831      0.63052886      0.57187519
      0.99999997      0.12500000      0.33333355
      0.12500000      0.99999997      0.40242084
      0.99999997      0.37499999      0.33333355
      0.12500000      0.24999999      0.40242084
