
1.0
     11.72461960      0.00000000      0.00000000
      0.00000000     11.72461960      0.00000000
      0.00000000      0.00000000     30.00000000
    Cu    Au
    32    64
Direct
      0.12500000     -0.00000024      0.52958572
      0.12500000     -0.00000025      0.64383859
      0.12500000      0.24999976      0.52958572
      0.12500000      0.24999975      0.64383859
      0.12500000      0.49999976      0.52958572
      0.12500000      0.49999975      0.64383858
      0.12500000      0.74999976      0.52958572
      0.12500000      0.74999975      0.64383859
      0.37500000     -0.00000024      0.52958572
      0.37499998     -0.00000025      0.64383858
      0.37500000      0.24999976      0.52958572
      0.37499998      0.24999975      0.64383858
      0.37500000      0.49999976      0.52958572
      0.37499998      0.49999975      0.64383858
      0.37500000      0.74999976      0.52958572
      0.37499998      0.74999975      0.64383858
      0.62500000     -0.00000024      0.52958573
      0.62500000     -0.00000025      0.64383858
      0.62500000      0.24999976      0.52958573
      0.62500000      0.24999975      0.64383858
      0.62500000      0.49999976      0.52958573
      0.62500000      0.49999975      0.64383858
      0.62500000      0.74999976      0.52958573
      0.62500000      0.74999975      0.64383858
      0.87500000     -0.00000024      0.52958572
      0.87500001     -0.00000025      0.64383858
      0.87500000      0.24999976      0.52958572
      0.87500001      0.24999975      0.64383858
      0.87500000      0.49999976      0.52958572
      0.87500002      0.49999975      0.64383858
      0.87500000      0.74999976      0.52958572
      0.87500001      0.74999975      0.64383858
      1.00000000      0.12500000      0.33333348
      0.12500000      1.00000000      0.40242120
      1.00000000      0.12499972      0.47271695
      0.00000000      0.12499968      0.58788595
      1.00000000      0.37500000      0.33333348
      0.12500000      0.25000000      0.40242120
      1.00000000      0.37499972      0.47271695
      1.00000001      0.37499968      0.58788595
      0.00000000      0.62500000      0.33333348
      0.12500000      0.50000000      0.40242120
      1.00000000      0.62499972      0.47271695
      0.00000001      0.62499968      0.58788595
      0.00000000      0.87500000      0.33333348
      0.12500000      0.75000000      0.40242120
     -0.00000000      0.87499972      0.47271695
      0.00000001      0.87499968      0.58788595
      0.25000000      0.12500000      0.33333348
      0.37500000      1.00000000      0.40242120
      0.25000000      0.12499972      0.47271695
      0.24999999      0.12499968      0.58788594
      0.25000000      0.37500000      0.33333348
      0.37500000      0.25000000      0.40242120
      0.25000000      0.37499972      0.47271695
      0.24999999      0.37499968      0.58788594
      0.25000000      0.62500000      0.33333348
      0.37500000      0.50000000      0.40242120
      0.25000000      0.62499972      0.47271695
      0.24999999      0.62499968      0.58788594
      0.25000000      0.87500000      0.33333348
      0.37500000      0.75000000      0.40242120
      0.25000000      0.87499972      0.47271695
      0.25000000      0.87499968      0.58788594
      0.50000000      0.12500000      0.33333348
      0.62500000      1.00000000      0.40242120
      0.50000000      0.12499972      0.47271695
      0.50000000      0.12499968      0.58788595
      0.50000000      0.37500000      0.33333348
      0.62500000      0.25000000      0.40242120
      0.50000000      0.37499972      0.47271695
      0.50000000      0.37499968      0.58788595
      0.50000000      0.62500000      0.33333348
      0.62500000      0.50000000      0.40242120
      0.50000000      0.62499972      0.47271695
      0.49999999      0.62499968      0.58788595
      0.50000000      0.87500000      0.33333348
      0.62500000      0.75000000      0.40242120
      0.50000000      0.87499972      0.47271695
      0.50000000      0.87499968      0.58788595
      0.75000000      0.12500000      0.33333348
      0.87500000      1.00000000      0.40242120
      0.75000000      0.12499972      0.47271695
      0.75000000      0.12499968      0.58788595
      0.75000000      0.37500000      0.33333348
      0.87500000      0.25000000      0.40242120
      0.75000000      0.37499972      0.47271695
      0.75000000      0.37499968      0.58788595
      0.75000000      0.62500000      0.33333348
      0.87500000      0.50000000      0.40242120
      0.75000000      0.62499972      0.47271695
      0.75000000      0.62499968      0.58788595
      0.75000000      0.87500000      0.33333348
      0.87500000      0.75000000      0.40242120
      0.75000000      0.87499972      0.47271695
      0.75000000      0.87499968      0.58788595
