
1.0
     11.72462000      0.00000000      0.00000000
      0.00000000     11.72462000      0.00000000
      0.00000000      0.00000000     30.00000000
    Cu    Au
    47    48
Direct
      0.76029162      0.86746412      0.56147484
      0.38510370      0.74907819      0.60904509
      0.74430666      0.13242517      0.45715534
      0.75015458      0.14397904      0.57057667
      0.63821298      0.98125253      0.61039863
      0.74493779      0.37435679      0.45924424
      0.62936560      0.25340417      0.51067624
      0.74386420      0.36115806      0.56778531
      0.75107070      0.62465681      0.45870194
      0.64660051      0.50056999      0.51512424
      0.76585441      0.63804599      0.56801183
      0.64360526      0.51653320      0.61286079
      0.74659688      0.87230644      0.46023569
      0.65052976      0.74306380      0.51228654
      0.11574070      1.01764657      0.51980812
      0.63849260      0.75485743      0.61408406
      0.01299865      0.13791223      0.46314984
     -0.02202156      0.13288052      0.56389516
      0.86518140      1.00040868      0.61379818
      0.00462032      0.36337595      0.46358701
      0.86124107      0.24870312      0.50774329
     -0.02244361      0.35040242      0.56307625
      0.00157009      0.62320618      0.45893452
     -0.01342081      0.63262581      0.57653679
      0.86594523      0.48749150      0.61448983
      0.00709283      0.87408417      0.46149511
      0.87723871      0.74575807      0.50821494
     -0.01735638      0.87915276      0.56305122
      0.87134166      0.77176330      0.61920842
      0.35557322      0.73594907      0.52387089
      0.25435935      0.12646418      0.46731488
      0.25602330      0.11828206      0.57243345
      0.10058758      1.00626072      0.60925699
      0.13290681      0.24310505      0.52331109
      0.10692380      0.23336937      0.61337638
      0.24868648      0.62230035      0.46202698
      0.22749630      0.62697811      0.58414481
      0.24395897      0.88731079      0.56617196
      0.10535617      0.78195195      0.61499982
      0.49474210      0.13282285      0.46122415
      0.39026887      1.02193927      0.52272998
      0.40872418      0.53238079      0.61665309
      0.49954593      0.37871739      0.46705249
      0.38439726      0.24401811      0.51913633
      0.52303301      0.38458593      0.56118972
      0.52496175      0.63414732      0.56225963
      0.51613984      0.85497060      0.55937379
      0.24999999      0.87499997      0.33333355
      0.62499998      0.24999999      0.40242084
      0.49999998      0.37499999      0.33333355
      0.62499998      0.99999997      0.40242084
      0.49999998      0.12500000      0.33333355
      0.37499999      0.74999997      0.40242084
      0.62499998      0.49999998      0.40242084
      0.37499999      0.49999998      0.40242084
      0.24999999      0.62499998      0.33333355
      0.37499999      0.24999999      0.40242084
      0.24999999      0.37499999      0.33333355
      0.37499999      0.99999997      0.40242084
      0.49999998      0.62499998      0.33333355
      0.12500000      0.49999998      0.40242084
      0.49999998      0.87499997      0.33333355
      0.62499998      0.74999997      0.40242084
      0.74999997      0.12500000      0.33333355
      0.87499997      0.99999997      0.40242084
      0.74999997      0.37499999      0.33333355
      0.87499997      0.24999999      0.40242084
      0.74999997      0.62499998      0.33333355
      0.87499997      0.49999998      0.40242084
      0.74999997      0.87499997      0.33333355
      0.87499997      0.74999997      0.40242084
      0.30112418      0.33314388      0.59589877
      0.51735104      0.16664080      0.58473154
      0.52088685      0.35307693      0.64600410
      0.11658981      0.74031624      0.51923318
      0.87386842      1.00728973      0.50705976
      0.25156006      0.89062472      0.47160901
      0.09895982      0.46505070      0.62115814
      0.49833106      0.61990891      0.46918556
      0.11450163      0.49579057      0.52204757
      0.35691406      0.50378672      0.52898840
      0.87531992      0.24975416      0.62900480
      0.87244176      0.49953435      0.51330402
      0.24999999      0.12500000      0.33333355
      0.25213545      0.36487288      0.46687380
      0.62765966      1.02085727      0.51786605
      0.49569690      0.86976269      0.47016184
      0.99999997      0.12500000      0.33333355
      0.12500000      0.99999997      0.40242084
      0.99999997      0.37499999      0.33333355
      0.12500000      0.24999999      0.40242084
      0.99999997      0.62499998      0.33333355
      0.40063195      0.97496838      0.61664058
      0.99999997      0.87499997      0.33333355
      0.12500000      0.74999997      0.40242084
