1.0
     11.72462000      0.00000000      0.00000000
      0.00000000     11.72462000      0.00000000
      0.00000000      0.00000000     30.00000000
    Cu    Au
    47    48
Direct
      0.24969937      0.12499999      0.45887375
      0.12693858     -0.00078644      0.50306158
      0.24940779      0.12499996      0.54991154
      0.25448319      0.37948436      0.46044600
      0.12693858      0.25078640      0.50306159
      0.25025222      0.37605383      0.54928371
      0.25351257      0.62499996      0.46079856
      0.12250389      0.49947327      0.50309029
      0.24311226      0.62499998      0.54947918
      0.25448318      0.87051560      0.46044599
      0.12250389      0.75052669      0.50309028
      0.25025222      0.87394612      0.54928370
      0.49999999      0.12499998      0.45903855
      0.37388611      0.00191016      0.50321783
      0.49999999      0.12499996      0.55015245
      0.49999999      0.37791125      0.46075752
      0.37388611      0.24808979      0.50321784
      0.49999999      0.36757627      0.54959779
      0.49999999      0.62499997      0.45782914
      0.38319805      0.50770463      0.50763935
      0.49999999      0.87208871      0.46075751
      0.38319805      0.74229531      0.50763934
      0.49999999      0.88242369      0.54959778
      0.75030061      0.12499999      0.45887375
      0.62611387      0.00191016      0.50321783
      0.75059220      0.12499996      0.54991154
      0.74551679      0.37948436      0.46044600
      0.62611387      0.24808979      0.50321784
      0.74974777      0.37605383      0.54928371
      0.74648740      0.62499996      0.46079856
      0.61680194      0.50770463      0.50763935
      0.75688772      0.62499998      0.54947918
      0.74551679      0.87051560      0.46044600
      0.61680194      0.74229531      0.50763935
      0.74974777      0.87394612      0.54928370
     -0.00000001      0.12499999      0.45967879
      0.87306140     -0.00078644      0.50306158
     -0.00000001      0.12499997      0.54869397
     -0.00000001      0.37354109      0.45907053
      0.87306140      0.25078640      0.50306159
     -0.00000001      0.37333417      0.54966104
     -0.00000001      0.62499997      0.45874794
      0.87749610      0.49947327      0.50309029
     -0.00000001      0.62499999      0.55024282
     -0.00000001      0.87645888      0.45907053
      0.87749609      0.75052669      0.50309028
     -0.00000001      0.87666579      0.54966103
      0.00000000      0.12500000      0.33333355
      0.12500000      0.00000000      0.40242084
      0.00000000      0.37499999      0.33333355
      0.12500000      0.24999999      0.40242084
      0.00000000      0.62499998      0.33333355
      0.12500000      0.49999998      0.40242084
      0.00000000      0.87499997      0.33333355
      0.12500000      0.74999997      0.40242084
      0.24999999      0.12500000      0.33333355
      0.37499999      0.00000000      0.40242084
      0.24999999      0.37499999      0.33333355
      0.37499999      0.24999999      0.40242084
      0.24999999      0.62499998      0.33333355
      0.37499999      0.49999998      0.40242084
      0.24999999      0.87499997      0.33333355
      0.37499999      0.74999997      0.40242084
      0.49999998      0.12500000      0.33333355
      0.62499998      0.00000000      0.40242084
      0.49999998      0.37499999      0.33333355
      0.62499998      0.24999999      0.40242084
      0.49999998      0.62499998      0.33333355
      0.62499998      0.49999998      0.40242084
      0.49999998      0.87499997      0.33333355
      0.62499998      0.74999997      0.40242084
      0.74999997      0.12500000      0.33333355
      0.87499997      0.00000000      0.40242084
      0.74999997      0.37499999      0.33333355
      0.87499997      0.24999999      0.40242084
      0.74999997      0.62499998      0.33333355
      0.87499997      0.49999998      0.40242084
      0.74999997      0.87499997      0.33333355
      0.87499997      0.74999997      0.40242084
      0.12469737      0.00034240      0.60693576
      0.12469737      0.24965755      0.60693576
      0.12490949      0.49897863      0.60721456
      0.12490949      0.75102133      0.60721456
      0.37394487     -0.00013401      0.60726884
      0.37394487      0.25013395      0.60726884
      0.37878197      0.50377694      0.60305132
      0.37878197      0.74622302      0.60305131
      0.62605512     -0.00013401      0.60726884
      0.62605512      0.25013395      0.60726884
      0.62121802      0.50377694      0.60305132
      0.62121802      0.74622302      0.60305131
      0.87509049      0.75102133      0.60721456
      0.87509049      0.49897863      0.60721456
      0.87530261      0.24965755      0.60693576
      0.87530261      0.00034240      0.60693576
