
1.0
     11.72462000      0.00000000      0.00000000
      0.00000000     11.72462000      0.00000000
      0.00000000      0.00000000     30.00000000
    Cu    Au
    35    60
Direct
      0.02241286      0.10487030      0.57646634
      0.50601839      0.37348669      0.46635749
      0.36785446      0.25614817      0.62659046
     -0.00236912      0.63464334      0.46235720
     -0.00233620      0.39469577      0.58560853
      0.87732249      0.25184203      0.53318089
      0.49901648      0.87348878      0.46392289
     -0.00582693      0.37750909      0.46432210
      0.47754051      0.87313017      0.58458005
      0.88971930      0.98533829      0.62378528
      0.48917661      0.39474174      0.58399338
      0.73884669      0.10979873      0.58137104
      0.62248205      0.25613068      0.53416427
      0.60546993      0.77807881      0.63738950
      0.74385530      0.86680049      0.58545707
      0.75116548      0.62847378      0.46542318
      0.62212719      0.74989197      0.52804983
      0.60498127      0.49158439      0.63901186
      0.24472524      0.63492578      0.58302656
      0.12643671      0.97236921      0.51990273
      0.89484770      0.76778817      0.63203498
      0.02210435      0.85783774      0.57731526
      0.24480697      0.39284926      0.58088488
      0.88399257      0.74638595      0.52432047
      0.24546571      0.63009633      0.46086496
     -0.00009762      0.86711860      0.46460177
      0.35541890      0.98370727      0.63679768
      0.12735117      0.50671176      0.63470351
      0.24548591      0.87480473      0.46148402
      0.12544629      0.75095836      0.51735774
      0.23969038      0.86622263      0.58090030
      0.91227596      0.53876375      0.63710025
      0.01097406      0.64028336      0.57872450
      0.37382025      0.98165325      0.52198184
      0.48224156      0.09881888      0.58451474
      0.12500000      0.74999997      0.40242084
      0.99999997      0.87499997      0.33333355
      0.24999999      0.12500000      0.33333355
      0.12500000      0.24999999      0.40242084
      0.12500000      0.49999998      0.40242084
      0.99999997      0.62499998      0.33333355
      0.87499997      0.74999997      0.40242084
      0.37499999      0.99999997      0.40242084
      0.62499998      0.49999998      0.40242084
      0.24861609      0.11685252      0.47161167
      0.74999997      0.87499997      0.33333355
      0.87499997      0.49999998      0.40242084
      0.74999997      0.62499998      0.33333355
      0.87499997      0.24999999      0.40242084
      0.74999997      0.37499999      0.33333355
      0.87499997      0.99999997      0.40242084
      0.74999997      0.12500000      0.33333355
      0.62499998      0.74999997      0.40242084
      0.49999998      0.87499997      0.33333355
      0.24999999      0.37499999      0.33333355
      0.49999998      0.62499998      0.33333355
      0.62499998      0.24999999      0.40242084
      0.49999998      0.37499999      0.33333355
      0.62499998      0.99999997      0.40242084
      0.49999998      0.12500000      0.33333355
      0.37499999      0.74999997      0.40242084
      0.24999999      0.87499997      0.33333355
      0.37499999      0.49999998      0.40242084
      0.24999999      0.62499998      0.33333355
      0.37499999      0.24999999      0.40242084
      0.36151715      0.76149639      0.64780403
      0.24962039      0.10376547      0.57794154
      0.11531732      0.98312054      0.64272144
      0.25037429      0.37394566      0.46524610
      0.10998256      0.26758154      0.52862390
      0.13192025      0.26320150      0.63568293
      0.12222990      0.51773106      0.52162760
      0.11762632      0.73565573      0.64554335
      0.50199123      0.12503539      0.46960626
      0.38636481      0.25951489      0.53032058
      0.50784987      0.63133458      0.46631833
      0.36999422      0.50945031      0.52394782
      0.49446926      0.63635093      0.58760039
      0.35753954      0.49492448      0.64493740
      0.35980222      0.75785926      0.52081466
      0.99999997      0.37499999      0.33333355
      0.74812973      0.12600908      0.47543557
      0.61038204      0.98116732      0.53124364
      0.75269434      0.36778323      0.46991593
      0.76933246      0.39037551      0.59355718
      0.60211073      0.24562992      0.62927026
      0.62760999      0.50032623      0.52783477
      0.74565173      0.64069953      0.59379885
      0.74843660      0.86182477      0.46929781
     -0.00347300      0.12206019      0.47049387
      0.88129876      0.98023176      0.53128039
      0.89159499      0.21250882      0.63113338
      0.88066093      0.51629134      0.52360112
      0.99999997      0.12500000      0.33333355
      0.12500000      0.99999997      0.40242084
