
1.0
     11.72461960      0.00000000      0.00000000
      0.00000000     11.72461960      0.00000000
      0.00000000      0.00000000     30.00000000
    Cu    Au
    44    52
Direct
      0.75470205      0.61786193      0.46149404
      0.37681446      0.49627732      0.51141360
      0.49283779      0.60100765      0.57218737
      0.50383071      0.88367114      0.46541432
      0.51715841      0.87801990      0.56605558
      0.85568698      0.72029052      0.61851416
      0.74548306      0.12949861      0.46517350
      0.61668311      1.02103316      0.51907442
     -0.01940467      0.85222380      0.57587273
      0.86865678      0.72828694      0.52226225
      0.60597150      0.24660500      0.51681471
      0.72311557      0.37879166      0.57197497
      0.87238275      0.48952658      0.61700331
      0.37824768      0.47930249      0.62718915
      0.61072834      0.49702528      0.51442890
      0.73267519      0.60122617      0.57289880
      0.61132917      0.50350720      0.62752872
      0.00700652      0.61672312      0.57840397
      0.75021057      0.85724295      0.57008973
     -0.00431908      0.63043714      0.46196429
      0.02137474      0.37931576      0.57040541
      0.02274979      0.14818366      0.56863953
      0.88768671      1.01758615      0.61708454
     -0.00373725      0.36681310      0.46339984
      0.87173339      0.25688068      0.52545841
      0.35581693      0.26632038      0.62313283
      0.12818229      0.99523901      0.52752096
      0.24588513      0.12818397      0.57401822
      0.10099584      0.99444151      0.61397554
      0.25641152      0.37102779      0.45931497
      0.14268076      0.26135137      0.51652918
      0.25599294      0.38231175      0.56946108
      0.13801445      0.26609046      0.62170653
      0.25473915      0.62698917      0.45963099
      0.24595913      0.12117804      0.46426700
      0.26211328      0.59903654      0.57223378
      0.13879951      0.49447932      0.62384831
      0.49787255      0.61678582      0.45905143
      0.49333046      0.38528233      0.56758008
      0.50252905      0.12254844      0.46031071
      0.38740042      1.01147805      0.51687363
      0.14305435      0.74517741      0.61638826
      0.45550343      0.90927680      0.64300257
      0.49926381      0.37396709      0.46127381
      0.37500000      0.50000000      0.40242084
      1.00000000      0.87500000      0.33333355
      0.37500000      0.25000000      0.40242084
      0.25000000      0.37500000      0.33333355
      0.25000000      0.87500000      0.33333355
      0.37500000      1.00000000      0.40242084
      0.25000000      0.62500000      0.33333355
      0.87500000      0.75000000      0.40242084
      0.12500000      0.75000000      0.40242084
      0.25000000      0.12500000      0.33333355
      0.37500000      0.75000000      0.40242084
      0.50000000      0.12500000      0.33333355
      0.62500000      1.00000000      0.40242084
      0.50000000      0.37500000      0.33333355
      0.62500000      0.25000000      0.40242084
      0.50000000      0.62500000      0.33333355
      0.62500000      0.50000000      0.40242084
      0.50000000      0.87500000      0.33333355
      0.62500000      0.75000000      0.40242084
      0.75000000      0.12500000      0.33333355
      0.87500000      1.00000000      0.40242084
      0.75000000      0.37500000      0.33333355
      0.87500000      0.25000000      0.40242084
      0.75000000      0.62500000      0.33333355
      0.87500000      0.50000000      0.40242084
      0.75000000      0.87500000      0.33333355
      0.74611363      0.88105112      0.46908234
      0.13197435      0.49788407      0.51093135
      0.25229563      0.88608613      0.46771918
      0.13185602      0.74165750      0.52560054
      0.28667526      0.90282956      0.58501785
      0.47657803      0.09494722      0.59088968
      0.37718040      0.24477038      0.51681389
      0.38155857      0.73825436      0.51874328
      0.36759609      0.70578429      0.63548950
      0.71939848      0.15284577      0.58218155
      0.66872329      0.96841831      0.63724911
      0.74509708      0.36637264      0.46802726
      0.57591661      0.28790402      0.63741415
      0.12500000      0.50000000      0.40242084
      0.62247850      0.72741393      0.51695055
      0.61651845      0.73328890      0.62899893
      0.00613648      0.13248936      0.47096004
      0.86484811      1.01728972      0.52950700
      0.89924605      0.26486307      0.62591870
      0.88024385      0.49992640      0.52130233
     -0.00567110      0.87340703      0.47127173
      1.00000000      0.12500000      0.33333355
      0.12500000      1.00000000      0.40242084
      1.00000000      0.37500000      0.33333355
      0.12500000      0.25000000      0.40242084
      1.00000000      0.62500000      0.33333355
