1.0
     11.72461960      0.00000000      0.00000000
      0.00000000     11.72461960      0.00000000
      0.00000000      0.00000000     30.00000000
    Cu    Au
    48    48
Direct
      0.75729857      0.87030908      0.56192386
      0.37818989      0.74920408      0.60842488
      0.74167011      0.13280128      0.45742510
      0.75018492      0.14726967      0.57105123
      0.63542710      0.98341204      0.61154559
      0.74361751      0.37278504      0.46005395
      0.62434275      0.25310662      0.51151443
      0.75030710      0.36738677      0.56112175
      0.66990071      0.28868285      0.62773242
      0.74947646      0.62668009      0.45865754
      0.64020611      0.49993090      0.51424412
      0.75873453      0.62747763      0.56977675
      0.63429147      0.50518712      0.61672687
      0.74536950      0.87104024      0.46081234
      0.65012262      0.74190289      0.51377833
      0.11631576      1.01683539      0.51939899
      0.63925965      0.75599988      0.61449568
      0.01478432      0.13577278      0.46285320
     -0.02113037      0.13067038      0.56350226
      0.86220509      1.00125366      0.61459299
      0.00530437      0.36292443      0.46334147
      0.86417301      0.24547017      0.50660406
     -0.02410485      0.35011480      0.56243548
      0.00287284      0.62608452      0.45879875
     -0.02046543      0.62650278      0.57671519
      0.85664811      0.47800598      0.61711931
      0.00568263      0.87302905      0.46204130
      0.87447191      0.74458256      0.51022178
     -0.01953372      0.88256646      0.56335524
      0.86754101      0.76990598      0.61787005
      0.35518414      0.73559800      0.52418410
      0.25478071      0.12566109      0.46726157
      0.25670756      0.11840212      0.57241056
      0.10068245      1.00590366      0.60986103
      0.13249841      0.24265811      0.52328599
      0.10613798      0.23000573      0.61410032
      0.24742336      0.62295306      0.46251330
      0.22247653      0.62203145      0.58379708
      0.24062494      0.88706728      0.56616514
      0.10054876      0.77805126      0.61428916
      0.49455765      0.13177218      0.46108891
      0.38902425      1.02091957      0.52273360
      0.40000684      0.53784922      0.61607573
      0.49939483      0.37809260      0.46566283
      0.38685077      0.24416230      0.51883252
      0.52267840      0.38246745      0.56517192
      0.52649158      0.63322837      0.56403494
      0.51494531      0.85507970      0.56032942
      0.25000000      0.87500000      0.33333355
      0.62500000      0.25000000      0.40242084
      0.50000000      0.37500000      0.33333355
      0.62500000      1.00000000      0.40242084
      0.50000000      0.12500000      0.33333355
      0.37500000      0.75000000      0.40242084
      0.62500000      0.50000000      0.40242084
      0.37500000      0.50000000      0.40242084
      0.25000000      0.62500000      0.33333355
      0.37500000      0.25000000      0.40242084
      0.25000000      0.37500000      0.33333355
      0.37500000      1.00000000      0.40242084
      0.50000000      0.62500000      0.33333355
      0.12500000      0.50000000      0.40242084
      0.50000000      0.87500000      0.33333355
      0.62500000      0.75000000      0.40242084
      0.75000000      0.12500000      0.33333355
      0.87500000      1.00000000      0.40242084
      0.75000000      0.37500000      0.33333355
      0.87500000      0.25000000      0.40242084
      0.75000000      0.62500000      0.33333355
      0.87500000      0.50000000      0.40242084
      0.75000000      0.87500000      0.33333355
      0.87500000      0.75000000      0.40242084
      0.28540624      0.34090305      0.59042545
      0.50888371      0.16410258      0.58641646
      0.47295659      0.35379254      0.65158009
      0.11334573      0.73963416      0.52055905
      0.87185069      1.00777838      0.50674550
      0.25083251      0.88776542      0.47163021
      0.08794159      0.46433885      0.62292623
      0.49843674      0.62316937      0.46849328
      0.11540534      0.49474447      0.52196563
      0.36260434      0.50424062      0.52764288
      0.88479123      0.24307934      0.63081722
      0.87330113      0.50269803      0.51123504
      0.25000000      0.12500000      0.33333355
      0.25247984      0.36449578      0.46689229
      0.62623326      1.02266763      0.51890430
      0.49627247      0.87072459      0.47065410
      1.00000000      0.12500000      0.33333355
      0.12500000      1.00000000      0.40242084
      1.00000000      0.37500000      0.33333355
      0.12500000      0.25000000      0.40242084
      1.00000000      0.62500000      0.33333355
      0.39594182      0.97214237      0.61782166
      1.00000000      0.87500000      0.33333355
      0.12500000      0.75000000      0.40242084
