
1.0
     11.72462000      0.00000000      0.00000000
      0.00000000     11.72462000      0.00000000
      0.00000000      0.00000000     30.00000000
    Cu    Au
    31    64
Direct
      0.12593186     -0.00000000      0.52832965
      0.12297717     -0.00000001      0.64287548
      0.12800418      0.25326214      0.52958672
      0.12119456      0.24479120      0.64338682
      0.13117728      0.49999999      0.53120475
      0.10759491      0.49999999      0.64449921
      0.12800419      0.74673777      0.52958672
      0.12119456      0.75520880      0.64338682
      0.37500044     -0.00000001      0.52916187
      0.37499782     -0.00000001      0.64269351
      0.37500027      0.25607205      0.53112753
      0.37499824      0.23265051      0.64437790
      0.37500014      0.49999999      0.53251656
      0.37500027      0.74392791      0.53112753
      0.37499825      0.76734948      0.64437790
      0.62406662     -0.00000000      0.52832968
      0.62702420     -0.00000001      0.64287552
      0.62199495      0.25326194      0.52958675
      0.62880629      0.24479130      0.64338682
      0.61882150      0.49999999      0.53120478
      0.64240505      0.49999999      0.64449919
      0.62199495      0.74673796      0.52958675
      0.62880628      0.75520870      0.64338682
      0.87500037     -0.00000001      0.52770890
      0.87499816     -0.00000002      0.64263310
      0.87500026      0.25068557      0.52844522
      0.87499846      0.24859290      0.64284017
      0.87500026      0.49999999      0.52945028
      0.87499949      0.49999997      0.64267685
      0.87500026      0.74931439      0.52844522
      0.87499847      0.75140712      0.64284017
      0.99999997      0.12500000      0.33333348
      0.12500000      0.99999997      0.40242120
      1.00107977      0.12611899      0.47232159
     -0.00071855      0.12426911      0.58588179
      0.99999997      0.37499999      0.33333348
      0.12500000      0.24999999      0.40242120
      1.00139884      0.37622977      0.47299692
      1.00039302      0.37337004      0.58651922
      0.00000000      0.62499998      0.33333348
      0.12500000      0.49999998      0.40242120
      1.00139883      0.62377019      0.47299692
      0.00039301      0.62662993      0.58651923
      0.00000000      0.87499997      0.33333348
      0.12500000      0.74999997      0.40242120
      0.00107977      0.87388096      0.47232160
     -0.00071854      0.87573087      0.58588178
      0.24999999      0.12500000      0.33333348
      0.37499999      0.99999997      0.40242120
      0.25113507      0.12657155      0.47292844
      0.24853751      0.12510832      0.58631593
      0.24999999      0.37499999      0.33333348
      0.37499999      0.24999999      0.40242120
      0.25125822      0.37632313      0.47280599
      0.25314000      0.37813468      0.59371451
      0.24999999      0.62499998      0.33333348
      0.37499999      0.49999998      0.40242120
      0.25125823      0.62367682      0.47280599
      0.25314000      0.62186528      0.59371452
      0.24999999      0.87499997      0.33333348
      0.37499999      0.74999997      0.40242120
      0.25113507      0.87342840      0.47292845
      0.24853751      0.87489165      0.58631593
      0.49999998      0.12500000      0.33333348
      0.62499998      0.99999997      0.40242120
      0.49886474      0.12657161      0.47292828
      0.50146179      0.12510821      0.58631666
      0.49999998      0.37499999      0.33333348
      0.62499998      0.24999999      0.40242120
      0.49874162      0.37632311      0.47280590
      0.49685944      0.37813441      0.59371485
      0.49999998      0.62499998      0.33333348
      0.62499998      0.49999998      0.40242120
      0.49874161      0.62367684      0.47280590
      0.49685944      0.62186556      0.59371486
      0.49999998      0.87499997      0.33333348
      0.62499998      0.74999997      0.40242120
      0.49886474      0.87342834      0.47292829
      0.50146179      0.87489176      0.58631666
      0.74999997      0.12500000      0.33333348
      0.87499997      0.99999997      0.40242120
      0.74892004      0.12611893      0.47232174
      0.75071785      0.12426923      0.58588117
      0.74999997      0.37499999      0.33333348
      0.87499997      0.24999999      0.40242120
      0.74860095      0.37622977      0.47299706
      0.74960644      0.37337038      0.58651886
      0.74999997      0.62499998      0.33333348
      0.87499997      0.49999998      0.40242120
      0.74860095      0.62377019      0.47299706
      0.74960645      0.62662959      0.58651887
      0.74999997      0.87499997      0.33333348
      0.87499997      0.74999997      0.40242120
      0.74892004      0.87388103      0.47232175
      0.75071784      0.87573074      0.58588117
