
1.0
     11.72462000      0.00000000      0.00000000
      0.00000000     11.72462000      0.00000000
      0.00000000      0.00000000     30.00000000
    Cu    Au
    35    60
Direct
      0.01011946      0.11349568      0.57670428
      0.50232887      0.37461007      0.46656057
      0.37090211      0.26140926      0.62603642
      0.00177404      0.63210431      0.46103458
     -0.00788957      0.39150877      0.58547006
      0.88194505      0.26496011      0.52802414
      0.49458521      0.87358922      0.46447607
     -0.00114914      0.37806123      0.46292710
      0.47877677      0.86762271      0.58989244
      0.87203738      0.98867497      0.62293246
      0.51076695      0.39925187      0.59159540
      0.76050723      0.12152978      0.56995714
      0.64486384      0.99502929      0.62123798
      0.62231020      0.26328848      0.53253679
      0.64414713      0.78766810      0.63420541
      0.76150885      0.85901918      0.57413307
      0.74940127      0.62811667      0.46506878
      0.61119244      0.74853571      0.52836954
      0.23341915      0.63791208      0.58308737
      0.12657557      0.97336942      0.52056566
      0.88221031      0.77120511      0.63454578
      0.01193795      0.85524510      0.57768430
      0.23801557      0.38922352      0.58185463
      0.89245805      0.74431967      0.51904308
      0.24929056      0.63049116      0.46216665
      0.00647572      0.86646456      0.46224856
      0.33971325      0.97475060      0.63835558
      0.11901275      0.50613854      0.63472353
      0.24752132      0.87320082      0.46255185
      0.12418162      0.75053220      0.51792899
      0.23117767      0.86551705      0.58117947
      0.90722620      0.53360751      0.63777835
      0.00229970      0.63807609      0.57865903
      0.36784665      0.97899667      0.52441273
      0.46644304      0.08848413      0.58763745
      0.12500000      0.74999997      0.40242084
      0.99999997      0.87499997      0.33333355
      0.24999999      0.12500000      0.33333355
      0.12500000      0.24999999      0.40242084
      0.12500000      0.49999998      0.40242084
      0.99999997      0.62499998      0.33333355
      0.87499997      0.74999997      0.40242084
      0.37499999      0.99999997      0.40242084
      0.62499998      0.49999998      0.40242084
      0.25141970      0.11823922      0.47247685
      0.74999997      0.87499997      0.33333355
      0.87499997      0.49999998      0.40242084
      0.74999997      0.62499998      0.33333355
      0.87499997      0.24999999      0.40242084
      0.74999997      0.37499999      0.33333355
      0.87499997      0.99999997      0.40242084
      0.74999997      0.12500000      0.33333355
      0.62499998      0.74999997      0.40242084
      0.49999998      0.87499997      0.33333355
      0.24999999      0.37499999      0.33333355
      0.49999998      0.62499998      0.33333355
      0.62499998      0.24999999      0.40242084
      0.49999998      0.37499999      0.33333355
      0.62499998      0.99999997      0.40242084
      0.49999998      0.12500000      0.33333355
      0.37499999      0.74999997      0.40242084
      0.24999999      0.87499997      0.33333355
      0.37499999      0.49999998      0.40242084
      0.24999999      0.62499998      0.33333355
      0.37499999      0.24999999      0.40242084
      0.34760272      0.75147501      0.64635607
      0.24223830      0.10622721      0.57955327
      0.09886272      0.98512729      0.64145508
      0.25691124      0.37627296      0.46703234
      0.11166602      0.26826207      0.52827722
      0.12365560      0.26225998      0.63706043
      0.12395360      0.51810485      0.52198802
      0.10358015      0.73624483      0.64613387
      0.49950533      0.12733872      0.47076854
      0.39209070      0.26340539      0.53477066
      0.50233653      0.62974258      0.46627639
      0.37420799      0.51077434      0.53049669
      0.51245207      0.63407428      0.59632935
      0.34842986      0.49705023      0.64252539
      0.36222653      0.75632036      0.52415459
      0.99999997      0.37499999      0.33333355
      0.74617911      0.12624963      0.47619286
      0.60278567      0.98088476      0.53187586
      0.74812144      0.37021655      0.46809317
      0.75937276      0.39003967      0.59245417
      0.61173184      0.21956312      0.62550924
      0.62373144      0.50236305      0.52734766
      0.75739314      0.63637340      0.58659818
      0.74309832      0.86071300      0.47041784
      0.00039635      0.12779411      0.46825913
      0.89392179      0.98008904      0.52527976
      0.88186846      0.21668761      0.63439100
      0.88350103      0.51077894      0.52061338
      0.99999997      0.12500000      0.33333355
      0.12500000      0.99999997      0.40242084
