1.0
     11.72462000      0.00000000      0.00000000
      0.00000000     11.72462000      0.00000000
      0.00000000      0.00000000     30.00000000
    Cu    Au
    39    56
Direct
      0.63317531      0.52283947      0.63222580
      0.40097928      0.49838609      0.62556267
      0.50208789      0.87798628      0.46208201
      0.51884278      0.86524984      0.56684754
      0.75749016      0.12114051      0.46411210
      0.61751516      1.00112610      0.51529039
      0.75713657      0.10305487      0.56485800
      0.64180846      0.99385836      0.61831607
      0.75392732      0.37578759      0.46231369
      0.63643226      0.22686191      0.61601645
      0.75232322      0.62436414      0.45992695
      0.64352935      0.50660927      0.51200683
      0.75033348      0.63796205      0.56747509
      0.12233065      0.99535109      0.52467278
      0.62394722      0.73996389      0.51003238
      0.74650445      0.86574872      0.56171203
      0.87900124      0.98748965      0.51634101
     -0.01693928      0.11798407      0.56419204
      0.86474051      0.25899660      0.52015273
      0.00470157      0.62353240      0.46318727
      0.86603662      0.51169148      0.51471604
      0.84805074      0.54388768      0.63186826
      0.00569445      0.87028353      0.46598685
      0.87506524      0.74256545      0.51102594
     -0.00701610      0.86182317      0.56355268
      0.85961301      0.75823063      0.62456608
      0.38996576      0.98851524      0.51945641
      0.24342217      0.61697556      0.46215531
      0.12344852      0.50783102      0.52152160
      0.10058425      0.21820770      0.62011348
      0.23240410      0.38737956      0.59409901
      0.12733160      0.73670642      0.51662693
      0.24639247      0.37617021      0.46341224
      0.49518321      0.12265501      0.46467917
      0.09572282      1.00038063      0.61678435
      0.50507192      0.10867255      0.57070502
      0.38303222      0.25672380      0.52782659
      0.52809535      0.39334725      0.57014521
      0.50172360      0.61625177      0.46118860
      0.87499997      0.74999997      0.40242084
      0.26001264      0.13031837      0.47185611
      0.24999999      0.12500000      0.33333355
      0.37499999      0.74999997      0.40242084
      0.74999997      0.87499997      0.33333355
      0.12500000      0.74999997      0.40242084
      0.37499999      0.99999997      0.40242084
      0.87499997      0.49999998      0.40242084
      0.99999997      0.87499997      0.33333355
      0.24999999      0.37499999      0.33333355
      0.37499999      0.24999999      0.40242084
      0.12500000      0.49999998      0.40242084
      0.24999999      0.62499998      0.33333355
      0.37499999      0.49999998      0.40242084
      0.74999997      0.62499998      0.33333355
      0.24999999      0.87499997      0.33333355
      0.62499998      0.49999998      0.40242084
      0.87499997      0.24999999      0.40242084
      0.49999998      0.12500000      0.33333355
      0.74999997      0.37499999      0.33333355
      0.87499997      0.99999997      0.40242084
      0.62499998      0.99999997      0.40242084
      0.49999998      0.37499999      0.33333355
      0.74999997      0.12500000      0.33333355
      0.62499998      0.74999997      0.40242084
      0.62499998      0.24999999      0.40242084
      0.49999998      0.62499998      0.33333355
      0.49999998      0.87499997      0.33333355
      0.63220333      0.24063519      0.51886759
      0.26899721      0.10991241      0.58070756
      0.13687233      0.26927674      0.53093955
      0.41157307      0.27004427      0.62435798
      0.22064788      0.61532637      0.59461255
      0.24202087      0.87932269      0.46715679
      0.24877450      0.86301989      0.57756313
      0.07906555      0.78469122      0.63990048
      0.42192832      0.97529346      0.63363636
      0.49451824      0.37883056      0.46843548
      0.34789282      0.49275273      0.52711781
      0.52194493      0.62119551      0.57011860
      0.38057216      0.74085995      0.51442871
      0.39862881      0.73423761      0.63759138
      0.99999997      0.62499998      0.33333355
      0.75415347      0.39543906      0.57793865
      0.74804732      0.87666785      0.46575015
      0.64117605      0.76507688      0.63310009
      0.00101472      0.12623183      0.47074721
      0.87096918      0.97910937      0.62466421
     -0.00132498      0.38132449      0.46849872
     -0.00064424      0.40167442      0.59005549
      0.86699398      0.22164515      0.62769247
     -0.01265436      0.63325113      0.57208190
      0.99999997      0.12500000      0.33333355
      0.12500000      0.99999997      0.40242084
      0.99999997      0.37499999      0.33333355
      0.12500000      0.24999999      0.40242084
