
1.0
     11.72462000      0.00000000      0.00000000
      0.00000000     11.72462000      0.00000000
      0.00000000      0.00000000     30.00000000
    Cu    Au
    43    52
Direct
      0.75233500      0.61984563      0.46185717
      0.37644077      0.49868472      0.51164756
      0.49610261      0.60157151      0.57168981
      0.50120138      0.88240444      0.46424961
      0.51177195      0.87171669      0.57463141
      0.86016506      0.71696164      0.61708052
      0.74260491      0.12792808      0.46566866
      0.61191377      1.01136536      0.52101411
     -0.02031515      0.85383609      0.57446994
      0.86805479      0.72895014      0.52212772
      0.60534608      0.24506108      0.51630415
      0.72328424      0.37778229      0.57006669
      0.87195090      0.48938805      0.61573233
      0.37976903      0.48408512      0.62609712
      0.61002647      0.49951113      0.51348491
      0.73321451      0.60075316      0.57086301
      0.61526303      0.50004053      0.62623860
      0.01247771      0.61485959      0.57843897
      0.75065024      0.85746886      0.57143108
     -0.00424805      0.63112052      0.46157463
      0.02099243      0.37845007      0.56960609
      0.02151818      0.14769104      0.56817149
      0.87980275      1.01239250      0.61691465
     -0.00312286      0.36660509      0.46321753
      0.87091264      0.25591540      0.52527969
      0.35535607      0.26981141      0.62318697
      0.13008477      0.99550105      0.52771880
      0.24426574      0.13255116      0.57387606
      0.09638688      0.99481953      0.61390824
      0.25681209      0.37131243      0.45924162
      0.14239351      0.26136031      0.51604470
      0.25630388      0.38265736      0.56898211
      0.13566893      0.26626635      0.62169738
      0.25629860      0.62828716      0.45989682
      0.24620366      0.12058368      0.46411950
      0.25987224      0.60056887      0.57344237
      0.13883926      0.48899251      0.62414344
      0.49632065      0.61974303      0.45949168
      0.49366104      0.38589809      0.56690604
      0.50364930      0.12050584      0.46070254
      0.38751787      1.00913118      0.51706935
      0.14492225      0.75498021      0.61451255
      0.49885323      0.37465777      0.46130682
      0.37499999      0.49999998      0.40242084
      0.99999997      0.87499997      0.33333355
      0.37499999      0.24999999      0.40242084
      0.24999999      0.37499999      0.33333355
      0.24999999      0.87499997      0.33333355
      0.37499999      0.99999997      0.40242084
      0.24999999      0.62499998      0.33333355
      0.87499997      0.74999997      0.40242084
      0.12500000      0.74999997      0.40242084
      0.24999999      0.12500000      0.33333355
      0.37499999      0.74999997      0.40242084
      0.49999998      0.12500000      0.33333355
      0.62499998      0.99999997      0.40242084
      0.49999998      0.37499999      0.33333355
      0.62499998      0.24999999      0.40242084
      0.49999998      0.62499998      0.33333355
      0.62499998      0.49999998      0.40242084
      0.49999998      0.87499997      0.33333355
      0.62499998      0.74999997      0.40242084
      0.74999997      0.12500000      0.33333355
      0.87499997      0.99999997      0.40242084
      0.74999997      0.37499999      0.33333355
      0.87499997      0.24999999      0.40242084
      0.74999997      0.62499998      0.33333355
      0.87499997      0.49999998      0.40242084
      0.74999997      0.87499997      0.33333355
      0.74614238      0.88144066      0.46875882
      0.13304356      0.49841267      0.51064866
      0.25205166      0.88584210      0.46749201
      0.13157266      0.74154446      0.52490169
      0.29015077      0.91425407      0.58808386
      0.47298518      0.09434397      0.59061250
      0.37715423      0.24444377      0.51631416
      0.38017914      0.74216631      0.52063312
      0.37831307      0.71817108      0.63081279
      0.71633385      0.15078758      0.58174548
      0.65298158      0.96619923      0.63567960
      0.74478467      0.36645405      0.46811700
      0.57540329      0.28614833      0.63674132
      0.12500000      0.49999998      0.40242084
      0.62002403      0.73344299      0.51752624
      0.62729103      0.72670163      0.63047130
      0.00608164      0.13204224      0.47089763
      0.86332265      1.01767095      0.52925401
      0.89653819      0.26432356      0.62465389
      0.88209455      0.50083586      0.52048114
     -0.00563376      0.87454178      0.47131387
      0.99999997      0.12500000      0.33333355
      0.12500000      0.99999997      0.40242084
      0.99999997      0.37499999      0.33333355
      0.12500000      0.24999999      0.40242084
      0.99999997      0.62499998      0.33333355
