
1.0
     11.72462000      0.00000000      0.00000000
      0.00000000     11.72462000      0.00000000
      0.00000000      0.00000000     30.00000000
    Cu    Au
    43    52
Direct
      0.75535167      0.62184799      0.46138119
      0.37344918      0.49861333      0.51016607
      0.49485740      0.60190944      0.57139624
      0.50121168      0.88402901      0.46512122
      0.51557491      0.87879236      0.56719358
      0.85695659      0.72090971      0.61829452
      0.74504762      0.12873288      0.46442111
      0.61595068      1.01927888      0.51906582
     -0.01888885      0.85592070      0.57610284
      0.87150802      0.72999754      0.52235964
      0.60686763      0.24420067      0.51498490
      0.72158746      0.37940519      0.56957154
      0.86705605      0.48979771      0.61615199
      0.38976535      0.47275118      0.62572496
      0.61508578      0.50416295      0.51192336
      0.73339714      0.60548679      0.57140214
      0.61660990      0.50184168      0.62563380
      0.00695173      0.61545967      0.57886830
      0.75027283      0.85642087      0.57026348
     -0.00140459      0.63068224      0.46200633
      0.01777623      0.37909193      0.56979599
      0.02057097      0.14800867      0.56721599
      0.88430588      1.02203597      0.61678478
     -0.00193932      0.36651978      0.46379856
      0.86686689      0.25563280      0.52554251
      0.12932427      0.99470790      0.52795732
      0.24511801      0.13256229      0.57380897
      0.09965215      1.00014163      0.61423159
      0.25561468      0.37097492      0.45900129
      0.14403590      0.26212595      0.51697585
      0.26292275      0.37191210      0.57238028
      0.12882887      0.26388277      0.62095005
      0.25285255      0.62786867      0.45971052
      0.24469705      0.12042905      0.46384604
      0.26446735      0.59334318      0.57309375
      0.13908728      0.48902869      0.62291738
      0.49587922      0.61937328      0.45878362
      0.49597870      0.38909256      0.56148332
      0.50199842      0.12076532      0.45996138
      0.38503594      1.01070256      0.51702123
      0.14406572      0.74420625      0.61621825
      0.45528715      0.90620743      0.64406078
      0.49921447      0.37587467      0.46170374
      0.37499999      0.49999998      0.40242084
      0.99999997      0.87499997      0.33333355
      0.37499999      0.24999999      0.40242084
      0.24999999      0.37499999      0.33333355
      0.24999999      0.87499997      0.33333355
      0.37499999      0.99999997      0.40242084
      0.24999999      0.62499998      0.33333355
      0.87499997      0.74999997      0.40242084
      0.12500000      0.74999997      0.40242084
      0.24999999      0.12500000      0.33333355
      0.37499999      0.74999997      0.40242084
      0.49999998      0.12500000      0.33333355
      0.62499998      0.99999997      0.40242084
      0.49999998      0.37499999      0.33333355
      0.62499998      0.24999999      0.40242084
      0.49999998      0.62499998      0.33333355
      0.62499998      0.49999998      0.40242084
      0.49999998      0.87499997      0.33333355
      0.62499998      0.74999997      0.40242084
      0.74999997      0.12500000      0.33333355
      0.87499997      0.99999997      0.40242084
      0.74999997      0.37499999      0.33333355
      0.87499997      0.24999999      0.40242084
      0.74999997      0.62499998      0.33333355
      0.87499997      0.49999998      0.40242084
      0.74999997      0.87499997      0.33333355
      0.74751382      0.88131319      0.46864852
      0.13405730      0.49662342      0.51217003
      0.25124456      0.88523680      0.46761545
      0.13207330      0.74126708      0.52664466
      0.28551506      0.90570385      0.58664370
      0.46910174      0.09495893      0.59149877
      0.37700460      0.24281814      0.51593015
      0.37927236      0.73907876      0.51971992
      0.36845302      0.70310861      0.63515967
      0.70817386      0.15603019      0.58412549
      0.66717873      0.96718731      0.63726118
      0.74579273      0.36694744      0.46756571
      0.54658669      0.29463581      0.63448715
      0.12500000      0.49999998      0.40242084
      0.62003725      0.73225053      0.51651838
      0.61744415      0.73193479      0.62926919
      0.00573260      0.13269713      0.47165585
      0.85919613      1.02017206      0.53002507
      0.89330841      0.26463179      0.62436621
      0.88091066      0.50156278      0.52048042
     -0.00495302      0.87504189      0.47182122
      0.99999997      0.12500000      0.33333355
      0.12500000      0.99999997      0.40242084
      0.99999997      0.37499999      0.33333355
      0.12500000      0.24999999      0.40242084
      0.99999997      0.62499998      0.33333355
