
1.0
     11.72461960      0.00000000      0.00000000
      0.00000000     11.72461960      0.00000000
      0.00000000      0.00000000     30.00000000
    Cu    Au
    36    60
Direct
      0.01174105      0.11532892      0.57635126
      0.50415185      0.37630978      0.46607649
      0.36924061      0.25047319      0.62769180
      0.00002629      0.63315086      0.46268938
     -0.00040933      0.38804677      0.58562251
      0.88549021      0.26164528      0.52763886
      0.49863352      0.87295436      0.46468208
     -0.00250327      0.37979309      0.46406025
      0.48184943      0.87227414      0.58335208
      0.87215196      0.98957278      0.62319871
      0.49341020      0.38469509      0.58432089
      0.75591508      0.13138370      0.57403580
      0.63430987      1.00039136      0.62205301
      0.61726960      0.26018834      0.53067153
      0.61732303      0.78874760      0.63630762
      0.75578223      0.85485979      0.58034211
      0.75140769      0.62688907      0.46576838
      0.62227998      0.74522883      0.52815036
      0.60984603      0.47928733      0.63869127
      0.24887653      0.63502719      0.58548829
      0.12492236      0.97270336      0.52128244
      0.89349412      0.76686336      0.63454422
      0.01638227      0.85697754      0.57850233
      0.24486731      0.38911053      0.58219458
      0.88819446      0.74404948      0.52334570
      0.24552793      0.63123911      0.46192902
      0.00367607      0.86615930      0.46402709
      0.37572909      0.99359285      0.63576380
      0.12721334      0.50689998      0.63455087
      0.24488655      0.87305848      0.46248319
      0.12444913      0.75078224      0.51917953
      0.23898202      0.87073534      0.58277820
      0.90976526      0.52301000      0.63737579
      0.00606346      0.63857790      0.58129754
      0.37209910      0.98061885      0.52242175
      0.48070402      0.10592150      0.57918014
      0.12500000      0.75000000      0.40242084
      1.00000000      0.87500000      0.33333355
      0.25000000      0.12500000      0.33333355
      0.12500000      0.25000000      0.40242084
      0.12500000      0.50000000      0.40242084
      1.00000000      0.62500000      0.33333355
      0.87500000      0.75000000      0.40242084
      0.37500000      1.00000000      0.40242084
      0.62500000      0.50000000      0.40242084
      0.24867493      0.11472402      0.47129429
      0.75000000      0.87500000      0.33333355
      0.87500000      0.50000000      0.40242084
      0.75000000      0.62500000      0.33333355
      0.87500000      0.25000000      0.40242084
      0.75000000      0.37500000      0.33333355
      0.87500000      1.00000000      0.40242084
      0.75000000      0.12500000      0.33333355
      0.62500000      0.75000000      0.40242084
      0.50000000      0.87500000      0.33333355
      0.25000000      0.37500000      0.33333355
      0.50000000      0.62500000      0.33333355
      0.62500000      0.25000000      0.40242084
      0.50000000      0.37500000      0.33333355
      0.62500000      1.00000000      0.40242084
      0.50000000      0.12500000      0.33333355
      0.37500000      0.75000000      0.40242084
      0.25000000      0.87500000      0.33333355
      0.37500000      0.50000000      0.40242084
      0.25000000      0.62500000      0.33333355
      0.37500000      0.25000000      0.40242084
      0.36307041      0.76985058      0.64751570
      0.24622834      0.10193285      0.57933589
      0.09888873      0.98996136      0.64168051
      0.25042939      0.37847974      0.46525941
      0.11513149      0.26694261      0.52790118
      0.13264082      0.26132015      0.63786069
      0.12418742      0.51984654      0.52413756
      0.11971217      0.74072834      0.64516464
      0.50142476      0.12386317      0.46996084
      0.38093798      0.26060683      0.52919186
      0.50586124      0.63087977      0.46654969
      0.37177324      0.50997178      0.52650058
      0.49984464      0.63617992      0.59146432
      0.36163403      0.48836557      0.64466199
      0.36006565      0.75723879      0.52276939
      1.00000000      0.37500000      0.33333355
      0.74943528      0.12871977      0.47527560
      0.61602292      0.98120433      0.53036596
      0.75085755      0.37228313      0.46880826
      0.76743477      0.37705689      0.59046983
      0.60536902      0.23129023      0.63091294
      0.62631278      0.50137878      0.52869238
      0.74876146      0.63268814      0.59544041
      0.74907811      0.85893784      0.46947029
     -0.00071930      0.12347383      0.46938422
      0.88656169      0.98004167      0.52886108
      0.89270101      0.21446604      0.63758498
      0.88265000      0.51421087      0.52390506
      1.00000000      0.12500000      0.33333355
      0.12500000      1.00000000      0.40242084
