1.0
     11.72461960      0.00000000      0.00000000
      0.00000000     11.72461960      0.00000000
      0.00000000      0.00000000     30.00000000
    Cu    Au
    40    56
Direct
      0.63857837      0.52875902      0.63398196
      0.41157154      0.49707950      0.62929993
      0.50052280      0.87745963      0.46226499
      0.51749091      0.86626955      0.56833089
      0.75759393      0.12057539      0.46477695
      0.61557842      0.99962989      0.51551445
      0.75680306      0.10053419      0.56381306
      0.64326406      0.99470709      0.61883696
      0.75048777      0.37409305      0.46178303
      0.63059906      0.22447012      0.61624434
      0.75011038      0.62396724      0.45990628
      0.63946125      0.50588219      0.51214651
      0.75056610      0.63504036      0.56716175
      0.12334581      0.99746898      0.52532299
      0.62242117      0.74018921      0.51056951
      0.74597232      0.86451149      0.56146375
      0.88209067      0.98429900      0.51651832
     -0.01817016      0.12125664      0.56394542
      0.86116399      0.26013051      0.51991192
      0.00431147      0.62320955      0.46380241
      0.86004653      0.50643548      0.51372218
      0.85688028      0.53884071      0.63102835
      0.00735901      0.86879516      0.46607897
      0.87275691      0.74288527      0.51039460
     -0.00363675      0.85775823      0.56304660
      0.86588759      0.75195609      0.62324868
      0.38909231      0.99011233      0.52003757
      0.24628568      0.61739220      0.46161016
      0.13049062      0.50601368      0.51902378
      0.08935400      0.21134672      0.62361517
      0.07745530      0.53929926      0.63957302
      0.13223950      0.73746866      0.51616742
      0.24849107      0.37409616      0.46290296
      0.49553220      0.12154072      0.46436722
      0.09437041      0.99607207      0.61637447
      0.50374300      0.10762949      0.57115214
      0.38467862      0.25490033      0.52850035
      0.52439828      0.38939902      0.57249964
      0.41644840      0.26225677      0.61896512
      0.50136422      0.61678104      0.46110620
      0.87500000      0.75000000      0.40242084
      0.26076658      0.12964502      0.47157223
      0.25000000      0.12500000      0.33333355
      0.37500000      0.75000000      0.40242084
      0.75000000      0.87500000      0.33333355
      0.12500000      0.75000000      0.40242084
      0.37500000      1.00000000      0.40242084
      0.87500000      0.50000000      0.40242084
      1.00000000      0.87500000      0.33333355
      0.25000000      0.37500000      0.33333355
      0.37500000      0.25000000      0.40242084
      0.12500000      0.50000000      0.40242084
      0.25000000      0.62500000      0.33333355
      0.37500000      0.50000000      0.40242084
      0.75000000      0.62500000      0.33333355
      0.25000000      0.87500000      0.33333355
      0.62500000      0.50000000      0.40242084
      0.87500000      0.25000000      0.40242084
      0.50000000      0.12500000      0.33333355
      0.75000000      0.37500000      0.33333355
      0.87500000      1.00000000      0.40242084
      0.62500000      1.00000000      0.40242084
      0.50000000      0.37500000      0.33333355
      0.75000000      0.12500000      0.33333355
      0.62500000      0.75000000      0.40242084
      0.62500000      0.25000000      0.40242084
      0.50000000      0.62500000      0.33333355
      0.50000000      0.87500000      0.33333355
      0.63012361      0.23925165      0.51922927
      0.26943056      0.11522709      0.58448217
      0.14339738      0.26859002      0.53093320
      0.22941220      0.38325452      0.60939144
      0.23869025      0.62468072      0.58859203
      0.24351897      0.88042336      0.46719814
      0.25266928      0.86909407      0.57852403
      0.08482694      0.77326700      0.63863594
      0.42391826      0.98087535      0.63580317
      0.49598991      0.37630186      0.46746408
      0.35353908      0.48906625      0.52578112
      0.52203001      0.62008287      0.57145440
      0.38104141      0.74084334      0.51545008
      0.40595212      0.73959645      0.63943842
      1.00000000      0.62500000      0.33333355
      0.74711090      0.39467127      0.57910305
      0.74687887      0.87721100      0.46588613
      0.64767348      0.76586667      0.63313554
      0.00061449      0.12657265      0.47118108
      0.87171882      0.97415254      0.62335389
     -0.00048052      0.38016961      0.46888775
     -0.01290170      0.38761214      0.58373556
      0.85750421      0.21533849      0.62890351
     -0.01107888      0.62801260      0.56705071
      1.00000000      0.12500000      0.33333355
      0.12500000      1.00000000      0.40242084
      1.00000000      0.37500000      0.33333355
      0.12500000      0.25000000      0.40242084
